C4                                      
   1.00000000000000     
    14.8063199999999995    0.0000000000000000    0.0000000000000000
    -7.4031599999999997   12.8226492600000004    0.0000000000000000
     0.0000000000000000    0.0000000000000000   18.0000000000000000
   C    Pd   Au
    72     3     1
Direct
  0.0552585225195372  0.1109299231005849  0.3636499820669599
  0.0000688526628849  0.0001940903737676  0.3611094870117100
  0.0541604707281280  0.2771514012164360  0.3672810726577680
  0.9995339956971065  0.1663620849480694  0.3640076545946584
  0.0553770478652851  0.4449749083924601  0.3621177638651289
  0.9995010650566059  0.3334416719828113  0.3628322759384872
  0.0556480336783807  0.6115726693937802  0.3588160568426559
  0.0000342471479016  0.5004004365025665  0.3587798144090115
  0.0556832136845671  0.7781430888583074  0.3586015465861649
  0.0001308738204315  0.6670892462485583  0.3578455613649325
  0.0556641316799613  0.9446617333599221  0.3603313485894617
  0.0001802073624262  0.8336937447248616  0.3589088525997468
  0.2223379305810411  0.1109299231005849  0.3636499820669599
  0.1667919077108806  0.0001940903737676  0.3611094870117100
  0.2214250551563097  0.2761835803126118  0.3719827110951854
  0.1664577604930884  0.1662488509861930  0.3660146196052310
  0.2210383995016372  0.4449716782148272  0.3772869228211491
  0.1654487206313746  0.3322201114480663  0.3749309307755340
  0.2220736201390281  0.6118853092290450  0.3653198729783398
  0.1660291052521714  0.5008536348663881  0.3672752944259727
  0.2223801537996053  0.7783500063200535  0.3604871389288036
  0.1666739216110997  0.6671928418199045  0.3609171245665053
  0.2224144339421841  0.9447135583006130  0.3602190982766942
  0.1667827281927288  0.8337137068576510  0.3594669707276097
  0.3891889305534519  0.1111669612510440  0.3612766590228986
  0.3334579213734585  0.0001972581635599  0.3604063358480616
  0.3896574604883156  0.2771514012164360  0.3672810726577680
  0.3334947592509607  0.1663620849480694  0.3640076545946584
  0.3905998087131906  0.4449716782148272  0.3772869228211491
  0.3334380608166967  0.3322201114480663  0.3749309307755340
  0.3901400102070696  0.6136134904141244  0.3749255224734611
  0.3341904430927514  0.5017142161855119  0.3804537504436851
  0.3891305856772078  0.7787189745190233  0.3642724229041789
  0.3332416571142289  0.6682597929450722  0.3686286589137140
  0.3891097435473014  0.9448870210026854  0.3604694831760682
  0.3334390288038946  0.8340081492749363  0.3615107289769810
  0.5557898493977262  0.1113945237657319  0.3596428947447663
  0.5002171793511678  0.0004093699281142  0.3603901200005595
  0.5558724277570803  0.2780312186330107  0.3599153064475757
  0.5002077297699259  0.1668541494790077  0.3602613807398001
  0.5562644005271764  0.4449749083924601  0.3621177638651289
  0.5006072669261954  0.3334416719828113  0.3628322759384872
  0.5564782190900246  0.6118853092290450  0.3653198729783398
  0.5014911896142138  0.5008536348663881  0.3672752944259727
  0.5562549188418231  0.7787189745190233  0.3642724229041789
  0.5016848058308483  0.6682597929450722  0.3686286589137140
  0.5557606328840805  0.9448547357681605  0.3610750216734289
  0.5003601176862560  0.8340535653725070  0.3633256122547195
  0.7222712043679991  0.1113945237657319  0.3596428947447663
  0.6668588605769514  0.0004093699281142  0.3603901200005595
  0.7223830911519471  0.2780996523038937  0.3580755448936799
  0.6668129294076337  0.1669591888152766  0.3590412359129544
  0.7224993211055093  0.4447520887244210  0.3575078170506032
  0.6669926214262176  0.3336917959902550  0.3580946696441814
  0.7225911657154001  0.6115726693937802  0.3588160568426559
  0.6670328493546620  0.5004004365025665  0.3587798144090115
  0.7226363925204353  0.7783500063200535  0.3604871389288036
  0.6671855802087947  0.6671928418199045  0.3609171245665053
  0.7224438074553774  0.9448870210026854  0.3604694831760682
  0.6672357804710387  0.8340081492749363  0.3615107289769810
  0.8886445706975934  0.1111669612510440  0.3612766590228986
  0.8334059967901055  0.0001972581635599  0.3604063358480616
  0.8888253208759451  0.2780312186330107  0.3599153064475757
  0.8333130897090797  0.1668541494790077  0.3602613807398001
  0.8889192976189122  0.4447520887244210  0.3575078170506032
  0.8333658445640424  0.3336917959902550  0.3580946696441814
  0.8890887815629469  0.6115110331258933  0.3572334265564123
  0.8335099458560649  0.5003532217121318  0.3569922524630798
  0.8891264051737409  0.7781430888583074  0.3586015465861649
  0.8336250424281246  0.6670892462485583  0.3578455613649325
  0.8889656543584294  0.9447135583006130  0.3602190982766942
  0.8335976386649122  0.8337137068576510  0.3594669707276097
  0.1842913958804999  0.3800257305375681  0.4939932542410475
  0.3664624040400000  0.5662581380799949  0.4934508664324611
  0.3624010046570589  0.3800257305375681  0.4939932542410475
  0.3046014371311543  0.4425361942623098  0.6171303539094382
 
  0.00000000E+00  0.00000000E+00  0.00000000E+00
  0.00000000E+00  0.00000000E+00  0.00000000E+00
  0.00000000E+00  0.00000000E+00  0.00000000E+00
  0.00000000E+00  0.00000000E+00  0.00000000E+00
  0.00000000E+00  0.00000000E+00  0.00000000E+00
  0.00000000E+00  0.00000000E+00  0.00000000E+00
  0.00000000E+00  0.00000000E+00  0.00000000E+00
  0.00000000E+00  0.00000000E+00  0.00000000E+00
  0.00000000E+00  0.00000000E+00  0.00000000E+00
  0.00000000E+00  0.00000000E+00  0.00000000E+00
  0.00000000E+00  0.00000000E+00  0.00000000E+00
  0.00000000E+00  0.00000000E+00  0.00000000E+00
  0.00000000E+00  0.00000000E+00  0.00000000E+00
  0.00000000E+00  0.00000000E+00  0.00000000E+00
  0.00000000E+00  0.00000000E+00  0.00000000E+00
  0.00000000E+00  0.00000000E+00  0.00000000E+00
  0.00000000E+00  0.00000000E+00  0.00000000E+00
  0.00000000E+00  0.00000000E+00  0.00000000E+00
  0.00000000E+00  0.00000000E+00  0.00000000E+00
  0.00000000E+00  0.00000000E+00  0.00000000E+00
  0.00000000E+00  0.00000000E+00  0.00000000E+00
  0.00000000E+00  0.00000000E+00  0.00000000E+00
  0.00000000E+00  0.00000000E+00  0.00000000E+00
  0.00000000E+00  0.00000000E+00  0.00000000E+00
  0.00000000E+00  0.00000000E+00  0.00000000E+00
  0.00000000E+00  0.00000000E+00  0.00000000E+00
  0.00000000E+00  0.00000000E+00  0.00000000E+00
  0.00000000E+00  0.00000000E+00  0.00000000E+00
  0.00000000E+00  0.00000000E+00  0.00000000E+00
  0.00000000E+00  0.00000000E+00  0.00000000E+00
  0.00000000E+00  0.00000000E+00  0.00000000E+00
  0.00000000E+00  0.00000000E+00  0.00000000E+00
  0.00000000E+00  0.00000000E+00  0.00000000E+00
  0.00000000E+00  0.00000000E+00  0.00000000E+00
  0.00000000E+00  0.00000000E+00  0.00000000E+00
  0.00000000E+00  0.00000000E+00  0.00000000E+00
  0.00000000E+00  0.00000000E+00  0.00000000E+00
  0.00000000E+00  0.00000000E+00  0.00000000E+00
  0.00000000E+00  0.00000000E+00  0.00000000E+00
  0.00000000E+00  0.00000000E+00  0.00000000E+00
  0.00000000E+00  0.00000000E+00  0.00000000E+00
  0.00000000E+00  0.00000000E+00  0.00000000E+00
  0.00000000E+00  0.00000000E+00  0.00000000E+00
  0.00000000E+00  0.00000000E+00  0.00000000E+00
  0.00000000E+00  0.00000000E+00  0.00000000E+00
  0.00000000E+00  0.00000000E+00  0.00000000E+00
  0.00000000E+00  0.00000000E+00  0.00000000E+00
  0.00000000E+00  0.00000000E+00  0.00000000E+00
  0.00000000E+00  0.00000000E+00  0.00000000E+00
  0.00000000E+00  0.00000000E+00  0.00000000E+00
  0.00000000E+00  0.00000000E+00  0.00000000E+00
  0.00000000E+00  0.00000000E+00  0.00000000E+00
  0.00000000E+00  0.00000000E+00  0.00000000E+00
  0.00000000E+00  0.00000000E+00  0.00000000E+00
  0.00000000E+00  0.00000000E+00  0.00000000E+00
  0.00000000E+00  0.00000000E+00  0.00000000E+00
  0.00000000E+00  0.00000000E+00  0.00000000E+00
  0.00000000E+00  0.00000000E+00  0.00000000E+00
  0.00000000E+00  0.00000000E+00  0.00000000E+00
  0.00000000E+00  0.00000000E+00  0.00000000E+00
  0.00000000E+00  0.00000000E+00  0.00000000E+00
  0.00000000E+00  0.00000000E+00  0.00000000E+00
  0.00000000E+00  0.00000000E+00  0.00000000E+00
  0.00000000E+00  0.00000000E+00  0.00000000E+00
  0.00000000E+00  0.00000000E+00  0.00000000E+00
  0.00000000E+00  0.00000000E+00  0.00000000E+00
  0.00000000E+00  0.00000000E+00  0.00000000E+00
  0.00000000E+00  0.00000000E+00  0.00000000E+00
  0.00000000E+00  0.00000000E+00  0.00000000E+00
  0.00000000E+00  0.00000000E+00  0.00000000E+00
  0.00000000E+00  0.00000000E+00  0.00000000E+00
  0.00000000E+00  0.00000000E+00  0.00000000E+00
  0.00000000E+00  0.00000000E+00  0.00000000E+00
  0.00000000E+00  0.00000000E+00  0.00000000E+00
  0.00000000E+00  0.00000000E+00  0.00000000E+00
  0.00000000E+00  0.00000000E+00  0.00000000E+00
