C4                                      
   1.00000000000000     
    14.8063199999999995    0.0000000000000000    0.0000000000000000
    -7.4031599999999997   12.8226492600000004    0.0000000000000000
     0.0000000000000000    0.0000000000000000   18.0000000000000000
   C    Pd
    72     1
Direct
  0.0551794361119420  0.1106805179174373  0.3663887973199849
  0.9997729326167288  0.9996998073302095  0.3637030022147130
  0.0551790371332146  0.2778329779279076  0.3663874718955071
  0.9998137893557555  0.1665741260653064  0.3656600443372398
  0.0554370784178531  0.4444906662114931  0.3627505263059376
  0.9997731707041737  0.3334073009604381  0.3637004567154136
  0.0555275275473832  0.6111216173676297  0.3608266387496357
  0.9999390023784045  0.5000435306439570  0.3614087692595547
  0.0555274080842594  0.7777401365564742  0.3608279418442351
  0.9999681415407125  0.6666513966818215  0.3606719304315931
  0.0554371061238825  0.9442802759449549  0.3627526305218751
  0.9999392023914453  0.8332296834350004  0.3614102010226148
  0.2220764832309570  0.1106329027696589  0.3658515187277445
  0.1666145837330077  0.9998087232936825  0.3630760216258437
  0.2212713840689773  0.2773028669185820  0.3748483726309502
  0.1659088779539672  0.1653833002052139  0.3694762185906413
  0.2220754798752651  0.4447768511223629  0.3658506773504229
  0.1659080891744580  0.3338593090088793  0.3694754171321364
  0.2222326171727147  0.6112523428611354  0.3616242749088983
  0.1666145067462992  0.5001396932682098  0.3630743780801922
  0.2222247999462610  0.7777790552744719  0.3606201539356988
  0.1666402631548181  0.6666795375166998  0.3608317082130341
  0.2222320132564946  0.9443136179276550  0.3616252402619722
  0.1666402715823239  0.8332941030508323  0.3608332489725470
  0.3889411762416799  0.1109715481164528  0.3630734036792518
  0.3333228267538857  0.9998589587383151  0.3616238035582313
  0.3896481709021984  0.2772517253680107  0.3694747026489367
  0.3334804591600928  0.1663345032712584  0.3658505595207941
  0.3896472963860234  0.4457285748237751  0.3694759631638149
  0.3342853869313629  0.3338088449341399  0.3748483873605295
  0.3889411056334851  0.6113024830357148  0.3630751820847848
  0.3334795578394036  0.5004787285531407  0.3658508806452758
  0.3889155221639484  0.7778165912911987  0.3608317872998938
  0.3333234598109627  0.6667973948707768  0.3616248177015606
  0.3889150323039559  0.9444314945803143  0.3608308170660663
  0.3333310606044293  0.8333318774035661  0.3606193874176853
  0.5556167894754225  0.1110691816848401  0.3614069548193797
  0.5000282812607040  0.9999909964826514  0.3608251944348098
  0.5557827210420569  0.2777046061404889  0.3636986076985735
  0.5001185498044407  0.1666214778251103  0.3627489605684389
  0.5557417030746734  0.4445379148157897  0.3656591624579661
  0.5003769781819472  0.3332788426842654  0.3663860563580954
  0.5557828733836203  0.6114126902113455  0.3637025359521999
  0.5003766608347107  0.5004321964719836  0.3663885762035974
  0.5556166358635011  0.7778819325125141  0.3614096456049793
  0.5001185052007528  0.6668316220826114  0.3627521255352946
  0.5555874169206021  0.9444606603656140  0.3606703456240794
  0.5000285536512550  0.8333715555560488  0.3608263449096967
  0.7222633468482300  0.1111175718612998  0.3612866361820437
  0.6666842857225959  0.0000090322226640  0.3609981931130761
  0.7222475489171885  0.2777545353265580  0.3615338477346413
  0.6667034864325245  0.1666563774332062  0.3612949120902300
  0.7222539800884036  0.4444316718933976  0.3622343801946784
  0.6667773729865871  0.3333360516259773  0.3623368542542238
  0.7222546879081690  0.6111566573342202  0.3622362983067049
  0.6666414517312873  0.4999877472699694  0.3632347908132019
  0.7222475803613619  0.7778265497828087  0.3615370260110851
  0.6667774661011947  0.6667750656869629  0.3623402513845519
  0.7222624650889600  0.9444789626065457  0.3612880830428011
  0.6667034160185210  0.8333805553098728  0.3612981203573185
  0.8889138351516479  0.1111235137319397  0.3632352016818956
  0.8333004449937320  0.9999546248095754  0.3622360676171539
  0.8887782849518544  0.2777752291261706  0.3623382399120416
  0.8333013501045698  0.1666797688867589  0.3622349905125546
  0.8888516965022859  0.4444550385119115  0.3612963254009003
  0.8333081564982834  0.3333569041061182  0.3615346061574556
  0.8888712505670924  0.6111023485525422  0.3609992770691122
  0.8332920098333858  0.4999941137052133  0.3612871278083389
  0.8888521641608378  0.7777300957885345  0.3612981485206461
  0.8332927220988395  0.6666320352004078  0.3612888204359237
  0.8887775555480673  0.9443358300443805  0.3623401312046965
  0.8333079841107676  0.8332842096167710  0.3615368986777199
  0.2777754215471901  0.3055494174862687  0.4886360281546445

