C4                                      
   1.00000000000000     
    14.8063199999999995    0.0000000000000000    0.0000000000000000
    -7.4031599999999997   12.8226492600000004    0.0000000000000000
     0.0000000000000000    0.0000000000000000   17.0000000000000000
   C    Pd
    72     3
Direct
  0.0557427826907073  0.1112616089544929  0.3824730696521286
  0.0002234178095364  0.0002044585469818  0.3828625824998255
  0.0557851575888790  0.2778927887944391  0.3823021869026846
  0.0001656888091262  0.1667940989929093  0.3822966050833401
  0.0557428126907098  0.4444816637362194  0.3824730696521286
  0.0001656788091253  0.3333715498162206  0.3822966050833401
  0.0556209878691050  0.6110676952695613  0.3828657782131017
  0.0002234278095372  0.5000189892625571  0.3828625824998255
  0.0555314106549289  0.7777659353274657  0.3830181615585317
  0.9999887345670118  0.6666075330108114  0.3835470732832604
  0.0556209678691033  0.9445537425995383  0.3828657782131017
  0.9999887245670109  0.8333812015562003  0.3835470732832604
  0.2221143405397754  0.1109732851629701  0.3828304089217838
  0.1665917319818604  0.9999127627869129  0.3824511414554976
  0.2223508681911355  0.2777962308675228  0.3835798096995902
  0.1667143917442004  0.1666226825516546  0.3828585849610278
  0.2223508981911309  0.4445551173236097  0.3835798096995902
  0.1668021688215262  0.3334010594107610  0.3830355461534936
  0.2221143505397762  0.6111415253768087  0.3828304089217838
  0.1667144117442021  0.5000917291925617  0.3828585849610278
  0.2221618217725236  0.7777891982406473  0.3822550650913925
  0.1665917319818604  0.6666789791949483  0.3824511414554976
  0.2221618117725228  0.9443730635318772  0.3822550650913925
  0.1665432216853659  0.8332716108426865  0.3822868749974120
  0.3887620003804955  0.1109221759650865  0.3831358759220223
  0.3332037200598066  0.9998376124035886  0.3822883731364328
  0.3886042571514210  0.2773330097808397  0.3859959472332264
  0.3331638143859834  0.1663156174963731  0.3837431383181169
  0.3885827953636110  0.4442916526818124  0.3870335835949916
  0.3331400114237510  0.3330461011730108  0.3855191760204022
  0.3886042771514227  0.6112717073705838  0.3859959472332264
  0.3331400414237464  0.5000939202507411  0.3855191760204022
  0.3887620003804955  0.7778402744154107  0.3831358759220223
  0.3331638243859842  0.6668481968896174  0.3837431383181169
  0.3887833477342113  0.9443918938670990  0.3821058216470163
  0.3332037200598066  0.8333661076562180  0.3822883731364328
  0.5556214311444450  0.1109847764410503  0.3825033906410766
  0.4999839897553855  0.9999919948776892  0.3821481098454313
  0.5553812966349199  0.2771953172802029  0.3857337567512715
  0.4999343999159365  0.1664522113214133  0.3834595609954476
  0.5546919744476284  0.4435671740679084  0.3950518321091963
  0.4993792334253584  0.3321136076660167  0.3887101839283886
  0.5546919644476276  0.6111252903797180  0.3950518321091963
  0.4987212651268749  0.4993606575634360  0.3915414654179301
  0.5553813166349215  0.7781864293547116  0.3857337567512715
  0.4993792634253609  0.6672656257593417  0.3887101839283886
  0.5556214311444450  0.9446370947033884  0.3825033906410766
  0.4999344099159373  0.8334821785945294  0.3834595609954476
  0.7223383195475250  0.1111693797737630  0.3822332989085240
  0.6666983618249986  0.0001778667976140  0.3825493464133061
  0.7223906162313867  0.2776695273256848  0.3835315812057658
  0.6666983518249978  0.1665204750273901  0.3825493464133061
  0.7229662705678450  0.4438791761875436  0.3886812647433757
  0.6669347095509721  0.3329598930916617  0.3857590382496383
  0.7236580942204185  0.6118292921102082  0.3913240865427525
  0.6676603509960444  0.5000486092356269  0.3949709780736370
  0.7229662605678442  0.7790875743802985  0.3886812647433757
  0.6676603409960435  0.6676117717604200  0.3949709780736370
  0.7223906262313804  0.9447215189056948  0.3835315812057658
  0.6669347195509658  0.8339747964593087  0.3857590382496383
  0.8891214611280063  0.1113278361106254  0.3823795394810787
  0.8335639140119895  0.0002474625390860  0.3832270898219505
  0.8891214511280054  0.2777940450173801  0.3823795394810787
  0.8335397835373541  0.1667698767686829  0.3822130009537545
  0.8891759499271572  0.4443124070701217  0.3837886520270715
  0.8335639040119887  0.3333164214729010  0.3832270898219505
  0.8892038490427652  0.6110687029420205  0.3853954148509686
  0.8337480702695288  0.4998917917419021  0.3859556339255832
  0.8892038390427643  0.7781356161007480  0.3853954148509686
  0.8337783582794884  0.6668891891397450  0.3868051569866537
  0.8891759199271618  0.9448640028570452  0.3837886520270715
  0.8337480502695342  0.8338562885276346  0.3859556339255832
  0.6129914901095859  0.6416663000861078  0.5212236498962355
  0.6129914201095801  0.4713208700234759  0.5212236498962355
  0.6165964404744386  0.5582960802372199  0.6530164212806895
 
  0.00000000E+00  0.00000000E+00  0.00000000E+00
  0.00000000E+00  0.00000000E+00  0.00000000E+00
  0.00000000E+00  0.00000000E+00  0.00000000E+00
  0.00000000E+00  0.00000000E+00  0.00000000E+00
  0.00000000E+00  0.00000000E+00  0.00000000E+00
  0.00000000E+00  0.00000000E+00  0.00000000E+00
  0.00000000E+00  0.00000000E+00  0.00000000E+00
  0.00000000E+00  0.00000000E+00  0.00000000E+00
  0.00000000E+00  0.00000000E+00  0.00000000E+00
  0.00000000E+00  0.00000000E+00  0.00000000E+00
  0.00000000E+00  0.00000000E+00  0.00000000E+00
  0.00000000E+00  0.00000000E+00  0.00000000E+00
  0.00000000E+00  0.00000000E+00  0.00000000E+00
  0.00000000E+00  0.00000000E+00  0.00000000E+00
  0.00000000E+00  0.00000000E+00  0.00000000E+00
  0.00000000E+00  0.00000000E+00  0.00000000E+00
  0.00000000E+00  0.00000000E+00  0.00000000E+00
  0.00000000E+00  0.00000000E+00  0.00000000E+00
  0.00000000E+00  0.00000000E+00  0.00000000E+00
  0.00000000E+00  0.00000000E+00  0.00000000E+00
  0.00000000E+00  0.00000000E+00  0.00000000E+00
  0.00000000E+00  0.00000000E+00  0.00000000E+00
  0.00000000E+00  0.00000000E+00  0.00000000E+00
  0.00000000E+00  0.00000000E+00  0.00000000E+00
  0.00000000E+00  0.00000000E+00  0.00000000E+00
  0.00000000E+00  0.00000000E+00  0.00000000E+00
  0.00000000E+00  0.00000000E+00  0.00000000E+00
  0.00000000E+00  0.00000000E+00  0.00000000E+00
  0.00000000E+00  0.00000000E+00  0.00000000E+00
  0.00000000E+00  0.00000000E+00  0.00000000E+00
  0.00000000E+00  0.00000000E+00  0.00000000E+00
  0.00000000E+00  0.00000000E+00  0.00000000E+00
  0.00000000E+00  0.00000000E+00  0.00000000E+00
  0.00000000E+00  0.00000000E+00  0.00000000E+00
  0.00000000E+00  0.00000000E+00  0.00000000E+00
  0.00000000E+00  0.00000000E+00  0.00000000E+00
  0.00000000E+00  0.00000000E+00  0.00000000E+00
  0.00000000E+00  0.00000000E+00  0.00000000E+00
  0.00000000E+00  0.00000000E+00  0.00000000E+00
  0.00000000E+00  0.00000000E+00  0.00000000E+00
  0.00000000E+00  0.00000000E+00  0.00000000E+00
  0.00000000E+00  0.00000000E+00  0.00000000E+00
  0.00000000E+00  0.00000000E+00  0.00000000E+00
  0.00000000E+00  0.00000000E+00  0.00000000E+00
  0.00000000E+00  0.00000000E+00  0.00000000E+00
  0.00000000E+00  0.00000000E+00  0.00000000E+00
  0.00000000E+00  0.00000000E+00  0.00000000E+00
  0.00000000E+00  0.00000000E+00  0.00000000E+00
  0.00000000E+00  0.00000000E+00  0.00000000E+00
  0.00000000E+00  0.00000000E+00  0.00000000E+00
  0.00000000E+00  0.00000000E+00  0.00000000E+00
  0.00000000E+00  0.00000000E+00  0.00000000E+00
  0.00000000E+00  0.00000000E+00  0.00000000E+00
  0.00000000E+00  0.00000000E+00  0.00000000E+00
  0.00000000E+00  0.00000000E+00  0.00000000E+00
  0.00000000E+00  0.00000000E+00  0.00000000E+00
  0.00000000E+00  0.00000000E+00  0.00000000E+00
  0.00000000E+00  0.00000000E+00  0.00000000E+00
  0.00000000E+00  0.00000000E+00  0.00000000E+00
  0.00000000E+00  0.00000000E+00  0.00000000E+00
  0.00000000E+00  0.00000000E+00  0.00000000E+00
  0.00000000E+00  0.00000000E+00  0.00000000E+00
  0.00000000E+00  0.00000000E+00  0.00000000E+00
  0.00000000E+00  0.00000000E+00  0.00000000E+00
  0.00000000E+00  0.00000000E+00  0.00000000E+00
  0.00000000E+00  0.00000000E+00  0.00000000E+00
  0.00000000E+00  0.00000000E+00  0.00000000E+00
  0.00000000E+00  0.00000000E+00  0.00000000E+00
  0.00000000E+00  0.00000000E+00  0.00000000E+00
  0.00000000E+00  0.00000000E+00  0.00000000E+00
  0.00000000E+00  0.00000000E+00  0.00000000E+00
  0.00000000E+00  0.00000000E+00  0.00000000E+00
  0.00000000E+00  0.00000000E+00  0.00000000E+00
  0.00000000E+00  0.00000000E+00  0.00000000E+00
  0.00000000E+00  0.00000000E+00  0.00000000E+00
