C4                                      
   1.00000000000000     
    14.8063199999999995    0.0000000000000000    0.0000000000000000
    -7.4031599999999997   12.8226492600000004    0.0000000000000000
     0.0000000000000000    0.0000000000000000   18.0000000000000000
   C    Pt
    72     1
Direct
  0.0565582091823416  0.1108350351610667  0.3661483709336650
  0.0012521763058686  0.0002097896018043  0.3634345823465637
  0.0546836058977362  0.2765256040641759  0.3710593151967245
  0.0005407355087854  0.1662519836858039  0.3667541526263918
  0.0566479166685738  0.4448137153219776  0.3663115595748394
  0.0007319221900772  0.3329958812798210  0.3662293545513080
  0.0566437778052062  0.6112447346737966  0.3624486026962543
  0.0010991551841073  0.5001192099955034  0.3625744293815600
  0.0566811571738626  0.7778479993816489  0.3612406739002267
  0.0010835672722678  0.6668050582736740  0.3610845729470711
  0.0567649051419039  0.9444194252612732  0.3623194854606098
  0.0011969186379588  0.8334699034506983  0.3613150505301874
  0.2235040591810957  0.1107949316122827  0.3634203662681230
  0.1678347888448286  0.9998513316390429  0.3621955518905082
  0.2241064783015219  0.2765301640007465  0.3710346352192175
  0.1679843609708698  0.1662515254958734  0.3667443975060536
  0.2242050646906293  0.4461241977964931  0.3809792134319849
  0.1669494438580443  0.3316359756694496  0.3808448252324013
  0.2231894088367596  0.6115496642314113  0.3670392746426643
  0.1670615119117826  0.5012685400064072  0.3712864238165778
  0.2233520224969325  0.7779464312546409  0.3623810432371499
  0.1676695790585541  0.6670017677801070  0.3636586848655838
  0.2234024016035150  0.9443735316749198  0.3614529733630434
  0.1677907205975302  0.8334309915645690  0.3615269101351046
  0.3900928385937021  0.1109891978649600  0.3609027071175532
  0.3345110178875146  0.9999518499802491  0.3611375637643164
  0.3900724516184511  0.2776826710678506  0.3623591921086913
  0.3345312185579417  0.1665547340729390  0.3622384368648000
  0.3904256528880978  0.4448153436158435  0.3661220386667594
  0.3345228457247060  0.3329951114717318  0.3661075729559187
  0.3906253524016066  0.6115409438564825  0.3668885968481561
  0.3364678363218303  0.5012654152156699  0.3711639502483735
  0.3899432387084545  0.7775928462051880  0.3635906873438373
  0.3346267845852395  0.6669723371640472  0.3663987368396278
  0.3899979243848506  0.9443302665168360  0.3613210467927743
  0.3344265645831044  0.8333809583718548  0.3624704112098627
  0.5566341710739664  0.1109761163941627  0.3601404132352997
  0.5011389678318210  0.9999805179290391  0.3608710680790352
  0.5566578940546449  0.2777374967429083  0.3596526825948700
  0.5011274207469896  0.1666105744472048  0.3600535907834441
  0.5567690704753687  0.4444487193690989  0.3603873502190922
  0.5012204678143135  0.3333334091390654  0.3604498771723215
  0.5568629288197045  0.6112362209433613  0.3620743653032861
  0.5012765299140511  0.5001117002268813  0.3622637704352130
  0.5568725854740322  0.7779350468018649  0.3620950422285318
  0.5015896157713584  0.6669927826765871  0.3633610089839792
  0.5566148051790805  0.9443114569755764  0.3612119915753951
  0.5012374521588754  0.8333656227224040  0.3622917238827412
  0.7231825026783198  0.1109813213018924  0.3609496788726716
  0.6677287904859313  0.9999368950949261  0.3610344241253287
  0.7233455466277618  0.2777434970247867  0.3597944182666382
  0.6677714771611676  0.1666117962633109  0.3601489124988078
  0.7233412621359818  0.4444018419358926  0.3592966833432456
  0.6678217868896823  0.3333797973543469  0.3593361876695269
  0.7234029432087397  0.6111643339851653  0.3599325387745367
  0.6678074445107995  0.5000344035926290  0.3595677132774497
  0.7234436594087086  0.7778329859422399  0.3609190993933069
  0.6679910096572499  0.6667897235708367  0.3607025446313585
  0.7232636293997672  0.9443597218162765  0.3613069248957856
  0.6679199778179097  0.8334196502170386  0.3612468205781951
  0.8895747573225137  0.1107888378818771  0.3634258006300968
  0.8343127695460453  0.9998496516439275  0.3621438846449649
  0.8898800975280992  0.2776783827584239  0.3625129644050631
  0.8343059120035150  0.1665460970451917  0.3623028783138409
  0.8899440381659858  0.4444554193056334  0.3606718187215847
  0.8343839671958193  0.3333403514951030  0.3606709579212435
  0.8900442352573066  0.6111773294974299  0.3601826426186747
  0.8345053515274046  0.5000474525156449  0.3597648085525478
  0.8900505173102360  0.7778125448487927  0.3608629279685047
  0.8345467810606451  0.6668137332356849  0.3601242408544110
  0.8899539193030037  0.9444241165259655  0.3622537655385969
  0.8345628779438599  0.8334711746811791  0.3611582180337862
  0.1953372029630884  0.3884282578168481  0.4898619704619591

