C4                                      
   1.00000000000000     
    14.8063199999999995    0.0000000000000000    0.0000000000000000
    -7.4031599999999997   12.8226492600000004    0.0000000000000000
     0.0000000000000000    0.0000000000000000   18.0000000000000000
   C    Pt
    72     4
Direct
  0.0550667198515526  0.1108642659470078  0.3635321438238677
  0.0000588544701330  0.0002641387404836  0.3604535530227864
  0.0535974797843508  0.2768400915733409  0.3683113946234897
  0.9992766428534452  0.1661761860475934  0.3642211479245461
  0.0553629572761878  0.4449391652903998  0.3618415046363808
  0.9993807984053191  0.3333185945011508  0.3628153508425669
  0.0556387070879012  0.6115486320665795  0.3577611800679605
  0.0000183558311093  0.5003917255322605  0.3577377361704563
  0.0557032845559817  0.7781630010222997  0.3572844170779987
  0.0001706873175138  0.6671278840988890  0.3564019941638179
  0.0556806892062980  0.9446948484126025  0.3593837361206269
  0.0002375091768982  0.8338083483538057  0.3575829421890901
  0.2224640760954486  0.1108642659470078  0.3635321438238677
  0.1668719542703556  0.0002641387404836  0.3604535530227864
  0.2210802237957950  0.2754939175915965  0.3731482233647441
  0.1664741230620450  0.1662815761240921  0.3661132655556685
  0.2202353451944603  0.4446831902312667  0.3802436521904511
  0.1648486347832119  0.3315679604010171  0.3778027859973889
  0.2219820153179057  0.6118833118556779  0.3656878131146684
  0.1657446467756358  0.5008683226809723  0.3677742599178444
  0.2223385819539132  0.7783242419277840  0.3600689888698554
  0.1666420500602186  0.6671918784386577  0.3604807480267809
  0.2224329435443906  0.9447038616471204  0.3595345706852910
  0.1667731586472954  0.8337249654284946  0.3585844574420562
  0.3892506052007789  0.1110509315720947  0.3609650246900031
  0.3334643452062735  0.0001439637169653  0.3599432249382915
  0.3899091417889977  0.2768400915733409  0.3683113946234897
  0.3335662131941532  0.1661761860475934  0.3642211479245461
  0.3911143750368069  0.4446831902312667  0.3802436521904511
  0.3333859956178031  0.3315679604010171  0.3778027859973889
  0.3904717059893770  0.6142768819787605  0.3774914835263985
  0.3344595296884521  0.5022523893769204  0.3833696358466554
  0.3890321074152538  0.7787870341793521  0.3650809851020540
  0.3330303871265343  0.6685877985066426  0.3699981778537875
  0.3891010481557231  0.9448392431705983  0.3602388778799508
  0.3333828426549275  0.8340328760120599  0.3615508948721384
  0.5557527197054668  0.1112731555682132  0.3590089499964364
  0.5001716002967882  0.0003368293905979  0.3601510231372913
  0.5558753399292868  0.2779250294623665  0.3592394926270970
  0.5002378536026058  0.1667751596187941  0.3597458787880043
  0.5562427480142063  0.4449391652903998  0.3618415046363808
  0.5006044560958287  0.3333185945011508  0.3628153508425669
  0.5565678265377656  0.6118833118556779  0.3656878131146684
  0.5017903359053335  0.5008683226809723  0.3677742599178444
  0.5564214567640846  0.7787870341793521  0.3650809851020540
  0.5022240813801204  0.6685877985066426  0.3699981778537875
  0.5556867444515490  0.9447069589030974  0.3611625002875201
  0.5003615911300869  0.8340565122601831  0.3640341716432545
  0.7221869658627398  0.1112731555682132  0.3590089499964364
  0.6668318990938076  0.0003368293905979  0.3601510231372913
  0.7223235132561570  0.2779804965123134  0.3568572787050783
  0.6667735673295780  0.1668804646591582  0.3581620011448265
  0.7224442096272696  0.4447088150670098  0.3561306804005184
  0.6669416869232734  0.3336121178862328  0.3568840894059520
  0.7225764549786788  0.6115486320665795  0.3577611800679605
  0.6670400297011483  0.5003917255322605  0.3577377361704563
  0.7226521999738580  0.7783242419277840  0.3600689888698554
  0.6672164883784433  0.6671918784386577  0.3604807480267809
  0.7224047250148757  0.9448392431705983  0.3602388778799508
  0.6673166933571366  0.8340328760120599  0.3615508948721384
  0.8884668663713171  0.1110509315720947  0.3609650246900031
  0.8333462785106960  0.0001439637169653  0.3599432249382915
  0.8887162195330944  0.2779250294623665  0.3592394926270970
  0.8332039760161862  0.1667751596187941  0.3597458787880043
  0.8889311354397336  0.4447088150670098  0.3561306804005184
  0.8333371009629644  0.3336121178862328  0.3568840894059520
  0.8890808056878043  0.6114950813756082  0.3556408098612494
  0.8335168910522484  0.5003671121045130  0.3554294329936738
  0.8891262464663257  0.7781630010222997  0.3572844170779987
  0.8336238667813731  0.6671278840988890  0.3564019941638179
  0.8889374481027303  0.9447038616471204  0.3595345706852910
  0.8336184667811963  0.8337249654284946  0.3585844574420562
  0.1872945677273137  0.3826107398945666  0.4979042994784635
  0.3051215903275661  0.4435765006551335  0.6144741514284533
  0.3650607543696580  0.5634548387393181  0.4959614917962725
  0.3619828421672509  0.3826107398945666  0.4979042994784635
 
  0.00000000E+00  0.00000000E+00  0.00000000E+00
  0.00000000E+00  0.00000000E+00  0.00000000E+00
  0.00000000E+00  0.00000000E+00  0.00000000E+00
  0.00000000E+00  0.00000000E+00  0.00000000E+00
  0.00000000E+00  0.00000000E+00  0.00000000E+00
  0.00000000E+00  0.00000000E+00  0.00000000E+00
  0.00000000E+00  0.00000000E+00  0.00000000E+00
  0.00000000E+00  0.00000000E+00  0.00000000E+00
  0.00000000E+00  0.00000000E+00  0.00000000E+00
  0.00000000E+00  0.00000000E+00  0.00000000E+00
  0.00000000E+00  0.00000000E+00  0.00000000E+00
  0.00000000E+00  0.00000000E+00  0.00000000E+00
  0.00000000E+00  0.00000000E+00  0.00000000E+00
  0.00000000E+00  0.00000000E+00  0.00000000E+00
  0.00000000E+00  0.00000000E+00  0.00000000E+00
  0.00000000E+00  0.00000000E+00  0.00000000E+00
  0.00000000E+00  0.00000000E+00  0.00000000E+00
  0.00000000E+00  0.00000000E+00  0.00000000E+00
  0.00000000E+00  0.00000000E+00  0.00000000E+00
  0.00000000E+00  0.00000000E+00  0.00000000E+00
  0.00000000E+00  0.00000000E+00  0.00000000E+00
  0.00000000E+00  0.00000000E+00  0.00000000E+00
  0.00000000E+00  0.00000000E+00  0.00000000E+00
  0.00000000E+00  0.00000000E+00  0.00000000E+00
  0.00000000E+00  0.00000000E+00  0.00000000E+00
  0.00000000E+00  0.00000000E+00  0.00000000E+00
  0.00000000E+00  0.00000000E+00  0.00000000E+00
  0.00000000E+00  0.00000000E+00  0.00000000E+00
  0.00000000E+00  0.00000000E+00  0.00000000E+00
  0.00000000E+00  0.00000000E+00  0.00000000E+00
  0.00000000E+00  0.00000000E+00  0.00000000E+00
  0.00000000E+00  0.00000000E+00  0.00000000E+00
  0.00000000E+00  0.00000000E+00  0.00000000E+00
  0.00000000E+00  0.00000000E+00  0.00000000E+00
  0.00000000E+00  0.00000000E+00  0.00000000E+00
  0.00000000E+00  0.00000000E+00  0.00000000E+00
  0.00000000E+00  0.00000000E+00  0.00000000E+00
  0.00000000E+00  0.00000000E+00  0.00000000E+00
  0.00000000E+00  0.00000000E+00  0.00000000E+00
  0.00000000E+00  0.00000000E+00  0.00000000E+00
  0.00000000E+00  0.00000000E+00  0.00000000E+00
  0.00000000E+00  0.00000000E+00  0.00000000E+00
  0.00000000E+00  0.00000000E+00  0.00000000E+00
  0.00000000E+00  0.00000000E+00  0.00000000E+00
  0.00000000E+00  0.00000000E+00  0.00000000E+00
  0.00000000E+00  0.00000000E+00  0.00000000E+00
  0.00000000E+00  0.00000000E+00  0.00000000E+00
  0.00000000E+00  0.00000000E+00  0.00000000E+00
  0.00000000E+00  0.00000000E+00  0.00000000E+00
  0.00000000E+00  0.00000000E+00  0.00000000E+00
  0.00000000E+00  0.00000000E+00  0.00000000E+00
  0.00000000E+00  0.00000000E+00  0.00000000E+00
  0.00000000E+00  0.00000000E+00  0.00000000E+00
  0.00000000E+00  0.00000000E+00  0.00000000E+00
  0.00000000E+00  0.00000000E+00  0.00000000E+00
  0.00000000E+00  0.00000000E+00  0.00000000E+00
  0.00000000E+00  0.00000000E+00  0.00000000E+00
  0.00000000E+00  0.00000000E+00  0.00000000E+00
  0.00000000E+00  0.00000000E+00  0.00000000E+00
  0.00000000E+00  0.00000000E+00  0.00000000E+00
  0.00000000E+00  0.00000000E+00  0.00000000E+00
  0.00000000E+00  0.00000000E+00  0.00000000E+00
  0.00000000E+00  0.00000000E+00  0.00000000E+00
  0.00000000E+00  0.00000000E+00  0.00000000E+00
  0.00000000E+00  0.00000000E+00  0.00000000E+00
  0.00000000E+00  0.00000000E+00  0.00000000E+00
  0.00000000E+00  0.00000000E+00  0.00000000E+00
  0.00000000E+00  0.00000000E+00  0.00000000E+00
  0.00000000E+00  0.00000000E+00  0.00000000E+00
  0.00000000E+00  0.00000000E+00  0.00000000E+00
  0.00000000E+00  0.00000000E+00  0.00000000E+00
  0.00000000E+00  0.00000000E+00  0.00000000E+00
  0.00000000E+00  0.00000000E+00  0.00000000E+00
  0.00000000E+00  0.00000000E+00  0.00000000E+00
  0.00000000E+00  0.00000000E+00  0.00000000E+00
  0.00000000E+00  0.00000000E+00  0.00000000E+00
