C4                                      
   1.00000000000000     
    14.8063199999999995    0.0000000000000000    0.0000000000000000
    -7.4031599999999997   12.8226492600000004    0.0000000000000000
     0.0000000000000000    0.0000000000000000   18.0000000000000000
   C    Pd
    72     4
Direct
  0.0553894259617493  0.1109763375320441  0.3620813162344163
  0.9999162026822646  0.9999129409075493  0.3618384266397072
  0.0554946400102097  0.2777196380435072  0.3619459968081671
  0.9999389416150066  0.1665776365430247  0.3619040297244140
  0.0555429336255600  0.4444119124151058  0.3617751414032710
  0.0000200612104635  0.3333660475848959  0.3617751414032710
  0.0556263681625921  0.6111890443705619  0.3618750568081879
  0.0000695911199813  0.5000523983847884  0.3619100301807379
  0.0556393622151887  0.7778573470273926  0.3618076944083413
  0.0001718166523972  0.6667882112140973  0.3620145069168856
  0.0554821533353547  0.9443751688901330  0.3618398296982335
  0.0000706333243201  0.8333979205021151  0.3618037364686941
  0.2219451774566394  0.1109044165243418  0.3628934732753635
  0.1665632585510295  0.9999078322564117  0.3622095551749140
  0.2219471988108879  0.2775992790997108  0.3632088880978301
  0.1664980697835716  0.1665298554093440  0.3627392980598856
  0.2220929852054994  0.4444683519398325  0.3624788698367070
  0.1665136832656628  0.3333096080601692  0.3624788698367070
  0.2222502550719909  0.6112004034569765  0.3619040297244140
  0.1666640919667017  0.5000584019564940  0.3619459968081671
  0.2222662902405261  0.7778392648590113  0.3617582562820800
  0.1667461379429511  0.6668101730414477  0.3617376049167902
  0.2221920881512531  0.9444690668247731  0.3621824723713161
  0.1667410671104292  0.8334498164330739  0.3618310668027149
  0.3888216035060665  0.1109588881780326  0.3636559526008298
  0.3334230773950608  0.0001599434103881  0.3625988908265185
  0.3877349350269341  0.2770061925656293  0.3659291446543733
  0.3329688361040368  0.1663761437617808  0.3640030121845683
  0.3887799913848795  0.4447520641814293  0.3648405022453503
  0.3329169772034533  0.3330258958185723  0.3648405022453503
  0.3888571643742296  0.6112481845906572  0.3627392980598856
  0.3332370097111621  0.5001787609002903  0.3632088880978301
  0.3888922117747242  0.7778650990924518  0.3618384266397072
  0.3333021784297188  0.6668017024679571  0.3620813162344163
  0.3889544698594847  0.9444633832642992  0.3621327649353887
  0.3333946830254462  0.8334543054440005  0.3618093202694510
  0.5556399322164651  0.1109041130208652  0.3628136807588973
  0.5000131850212526  0.9999083820210117  0.3621428121257040
  0.5559498167132091  0.2770092697334334  0.3659221593327331
  0.5000918734329858  0.1663775833593988  0.3639718433610994
  0.5559391784844863  0.4452058286646405  0.3701363788693470
  0.4996223898198338  0.3325721313353611  0.3701363788693470
  0.5554816423422650  0.6114018962382204  0.3640030121845683
  0.4996178224613033  0.5007718474343719  0.3659291446543733
  0.5555443762946268  0.7778702077435895  0.3622095551749140
  0.4999298509323040  0.6668736234756594  0.3628934732753635
  0.5555616528221989  0.9443800994978844  0.3618037364686941
  0.4999960644452059  0.8334028511098666  0.3618398296982335
  0.7222725554382947  0.1109898287859039  0.3620145069168856
  0.6666711051878025  0.9999206929726085  0.3618076944083413
  0.7223529505512687  0.2776093026298270  0.3631389537163017
  0.6667177905139567  0.1665399856371508  0.3626543069099455
  0.7226587931485895  0.4447513239964636  0.3647981349378213
  0.6667965191521290  0.3330266360035381  0.3647981349378213
  0.7226032400735889  0.6114004566406024  0.3639718433610994
  0.6678296369797820  0.5007687702665677  0.3659221593327331
  0.7221520939846755  0.7776180965896131  0.3625988908265185
  0.6667517953280324  0.6668191518219686  0.3636559526008298
  0.7221802006773572  0.9443282035669256  0.3618310668027149
  0.6666120913264777  0.8333089531752265  0.3621824723713161
  0.8888249249015061  0.1109678669585534  0.3617376049167902
  0.8333161053815061  0.9999387751409898  0.3617582562820800
  0.8889061527351956  0.2777256416152127  0.3619100301807379
  0.8333264137920295  0.1665889956294393  0.3618750568081879
  0.8890652913486505  0.4444614976884438  0.3624077618393287
  0.8334928436602169  0.3333164623115579  0.3624077618393287
  0.8890667548768221  0.6112380543628504  0.3626543069099455
  0.8336327379214268  0.5001687373701742  0.3631389537163017
  0.8889937530002427  0.7778696579789894  0.3621428121257040
  0.8336249091956134  0.6668739269791359  0.3628136807588973
  0.8888293175814468  0.9443237145559991  0.3618093202694510
  0.8333801665951839  0.8333146367357003  0.3621327649353887
  0.5277396469756965  0.3888892100000021  0.4876431671301731
  0.3765274281623263  0.3888892100000021  0.5536940437925608
  0.5275053841152300  0.3888892100000021  0.6248022244877305
  0.6787136111413687  0.3888892100000021  0.5540644252368239
 
  0.00000000E+00  0.00000000E+00  0.00000000E+00
  0.00000000E+00  0.00000000E+00  0.00000000E+00
  0.00000000E+00  0.00000000E+00  0.00000000E+00
  0.00000000E+00  0.00000000E+00  0.00000000E+00
  0.00000000E+00  0.00000000E+00  0.00000000E+00
  0.00000000E+00  0.00000000E+00  0.00000000E+00
  0.00000000E+00  0.00000000E+00  0.00000000E+00
  0.00000000E+00  0.00000000E+00  0.00000000E+00
  0.00000000E+00  0.00000000E+00  0.00000000E+00
  0.00000000E+00  0.00000000E+00  0.00000000E+00
  0.00000000E+00  0.00000000E+00  0.00000000E+00
  0.00000000E+00  0.00000000E+00  0.00000000E+00
  0.00000000E+00  0.00000000E+00  0.00000000E+00
  0.00000000E+00  0.00000000E+00  0.00000000E+00
  0.00000000E+00  0.00000000E+00  0.00000000E+00
  0.00000000E+00  0.00000000E+00  0.00000000E+00
  0.00000000E+00  0.00000000E+00  0.00000000E+00
  0.00000000E+00  0.00000000E+00  0.00000000E+00
  0.00000000E+00  0.00000000E+00  0.00000000E+00
  0.00000000E+00  0.00000000E+00  0.00000000E+00
  0.00000000E+00  0.00000000E+00  0.00000000E+00
  0.00000000E+00  0.00000000E+00  0.00000000E+00
  0.00000000E+00  0.00000000E+00  0.00000000E+00
  0.00000000E+00  0.00000000E+00  0.00000000E+00
  0.00000000E+00  0.00000000E+00  0.00000000E+00
  0.00000000E+00  0.00000000E+00  0.00000000E+00
  0.00000000E+00  0.00000000E+00  0.00000000E+00
  0.00000000E+00  0.00000000E+00  0.00000000E+00
  0.00000000E+00  0.00000000E+00  0.00000000E+00
  0.00000000E+00  0.00000000E+00  0.00000000E+00
  0.00000000E+00  0.00000000E+00  0.00000000E+00
  0.00000000E+00  0.00000000E+00  0.00000000E+00
  0.00000000E+00  0.00000000E+00  0.00000000E+00
  0.00000000E+00  0.00000000E+00  0.00000000E+00
  0.00000000E+00  0.00000000E+00  0.00000000E+00
  0.00000000E+00  0.00000000E+00  0.00000000E+00
  0.00000000E+00  0.00000000E+00  0.00000000E+00
  0.00000000E+00  0.00000000E+00  0.00000000E+00
  0.00000000E+00  0.00000000E+00  0.00000000E+00
  0.00000000E+00  0.00000000E+00  0.00000000E+00
  0.00000000E+00  0.00000000E+00  0.00000000E+00
  0.00000000E+00  0.00000000E+00  0.00000000E+00
  0.00000000E+00  0.00000000E+00  0.00000000E+00
  0.00000000E+00  0.00000000E+00  0.00000000E+00
  0.00000000E+00  0.00000000E+00  0.00000000E+00
  0.00000000E+00  0.00000000E+00  0.00000000E+00
  0.00000000E+00  0.00000000E+00  0.00000000E+00
  0.00000000E+00  0.00000000E+00  0.00000000E+00
  0.00000000E+00  0.00000000E+00  0.00000000E+00
  0.00000000E+00  0.00000000E+00  0.00000000E+00
  0.00000000E+00  0.00000000E+00  0.00000000E+00
  0.00000000E+00  0.00000000E+00  0.00000000E+00
  0.00000000E+00  0.00000000E+00  0.00000000E+00
  0.00000000E+00  0.00000000E+00  0.00000000E+00
  0.00000000E+00  0.00000000E+00  0.00000000E+00
  0.00000000E+00  0.00000000E+00  0.00000000E+00
  0.00000000E+00  0.00000000E+00  0.00000000E+00
  0.00000000E+00  0.00000000E+00  0.00000000E+00
  0.00000000E+00  0.00000000E+00  0.00000000E+00
  0.00000000E+00  0.00000000E+00  0.00000000E+00
  0.00000000E+00  0.00000000E+00  0.00000000E+00
  0.00000000E+00  0.00000000E+00  0.00000000E+00
  0.00000000E+00  0.00000000E+00  0.00000000E+00
  0.00000000E+00  0.00000000E+00  0.00000000E+00
  0.00000000E+00  0.00000000E+00  0.00000000E+00
  0.00000000E+00  0.00000000E+00  0.00000000E+00
  0.00000000E+00  0.00000000E+00  0.00000000E+00
  0.00000000E+00  0.00000000E+00  0.00000000E+00
  0.00000000E+00  0.00000000E+00  0.00000000E+00
  0.00000000E+00  0.00000000E+00  0.00000000E+00
  0.00000000E+00  0.00000000E+00  0.00000000E+00
  0.00000000E+00  0.00000000E+00  0.00000000E+00
  0.00000000E+00  0.00000000E+00  0.00000000E+00
  0.00000000E+00  0.00000000E+00  0.00000000E+00
  0.00000000E+00  0.00000000E+00  0.00000000E+00
  0.00000000E+00  0.00000000E+00  0.00000000E+00
