C4                                      
   1.00000000000000     
    14.8063199999999995    0.0000000000000000    0.0000000000000000
    -7.4031599999999997   12.8226492600000004    0.0000000000000000
     0.0000000000000000    0.0000000000000000   17.0000000000000000
   C    Au
    72     3
Direct
  0.0562674945274679  0.1114497488121557  0.3823938353680560
  0.0007642106569890  0.0003755308997171  0.3824976373124329
  0.0563074848145249  0.2781539524072585  0.3819277662739040
  0.0007496934071867  0.1670300080021221  0.3822089319608253
  0.0562675245274704  0.4448182357153243  0.3823938353680560
  0.0007496834071858  0.3337196454050684  0.3822089319608253
  0.0562699675516853  0.6114724836136176  0.3827683653338525
  0.0007642206569969  0.5003887097572814  0.3824976373124329
  0.0562897026346647  0.7781450813173336  0.3828977126318733
  0.0007688719881358  0.6670554826889727  0.3825491479615764
  0.0562699475516837  0.9447979339380623  0.3827683653338525
  0.0007688619881350  0.8337133892991631  0.3825491479615764
  0.2227760362084297  0.1113114966032640  0.3835989172303229
  0.1673090462271247  0.0002556997441090  0.3835080064371468
  0.2228518243820830  0.2780360055519893  0.3822411915957602
  0.1673270492957144  0.1669221673580452  0.3826795637389608
  0.2228518543820783  0.4448162988300908  0.3822411915957602
  0.1673625473732585  0.3336812486866307  0.3817649999699242
  0.2227760462084305  0.6114650096051619  0.3835989172303229
  0.1673270692957161  0.5004049019376779  0.3826795637389608
  0.2229072535936396  0.7781306862962936  0.3843014770863746
  0.1673090462271247  0.6670533564830166  0.3835080064371468
  0.2229072435936388  0.9447770072973469  0.3843014770863746
  0.1673991624496836  0.8336995812248489  0.3838428953649782
  0.3895417486973827  0.1113139079668528  0.3858442692967756
  0.3340328665800101  0.0003060525615979  0.3852920582490071
  0.3890036441283442  0.2776117261716777  0.3858205141125239
  0.3338046439517299  0.1667003327117200  0.3850714056223055
  0.3893860936979081  0.4446933018489645  0.3832418733577896
  0.3338225264910477  0.3334142917201888  0.3832309890509720
  0.3890036641283459  0.6113923779566619  0.3858205141125239
  0.3338225564910431  0.5004082447708669  0.3832309890509720
  0.3895417486973827  0.7782282907305316  0.3858442692967756
  0.3338046539517308  0.6671043112400028  0.3850714056223055
  0.3896264904850355  0.9448134652425182  0.3855403462814451
  0.3340328665800101  0.8337268140184193  0.3852920582490071
  0.5563595869122011  0.1113538153321230  0.3854487730526586
  0.5007277804798491  0.0003638902399317  0.3855730318791188
  0.5564665491423639  0.2775706241378657  0.3867849998701729
  0.5007083857963366  0.1667363366461032  0.3860691070544462
  0.5565744806003252  0.4448750250179714  0.3895624199832426
  0.5003635101069861  0.3327523145701576  0.3892410353050977
  0.5565744706003244  0.6116999455823517  0.3895624199832426
  0.4999295329364415  0.4999647914682299  0.3862593373630290
  0.5564665691423656  0.7788963750044999  0.3867849998701729
  0.5003635401069886  0.6676111955368356  0.3892410353050977
  0.5563595869122011  0.9450062115800719  0.3854487730526586
  0.5007083957963374  0.8339720391502397  0.3860691070544462
  0.7230382249598648  0.1115193324799364  0.3841961220687296
  0.6674321906970988  0.0004534161509184  0.3847176332505668
  0.7230477958566652  0.2781155766308956  0.3841465573789691
  0.6674321806970980  0.1669787545461929  0.3847176332505668
  0.7231711564680978  0.4448295808861786  0.3840185215314094
  0.6675123400285727  0.3335780259428418  0.3850461764995288
  0.7233195868589917  0.6116600384294983  0.3834982937618605
  0.6681641936645732  0.5007315780322514  0.3851879825061175
  0.7231711464680970  0.7783420555819234  0.3840185215314094
  0.6681641836645724  0.6674326456323314  0.3851879825061175
  0.7230478058566590  0.9449326492257626  0.3841465573789691
  0.6675123500285665  0.8339342940857293  0.3850461764995288
  0.8896706447479730  0.1115116939550944  0.3827280511243885
  0.8341481253722307  0.0004316893136505  0.3830427463183312
  0.8896706347479721  0.2781593707928778  0.3827280511243885
  0.8341238876203789  0.1670619288101989  0.3831636630788608
  0.8896937250509538  0.4448030431506353  0.3825981669385001
  0.8341481153722299  0.3337164060585707  0.3830427463183312
  0.8897295679143156  0.6115048334609199  0.3822584709316956
  0.8342073986358400  0.5003728992212899  0.3826845518108328
  0.8897295579143147  0.7782252044533848  0.3822584709316956
  0.8343266954866877  0.6671633577433411  0.3821756576117679
  0.8896936950509584  0.9448911419003210  0.3825981669385001
  0.8342073786358455  0.8338345094145510  0.3826845518108328
  0.5358839762390346  0.6182499351698283  0.5359358682010580
  0.5358839062390359  0.4176346710692087  0.5359358682010580
  0.5421713503616132  0.5210860051808055  0.6612908361290195
 
  0.00000000E+00  0.00000000E+00  0.00000000E+00
  0.00000000E+00  0.00000000E+00  0.00000000E+00
  0.00000000E+00  0.00000000E+00  0.00000000E+00
  0.00000000E+00  0.00000000E+00  0.00000000E+00
  0.00000000E+00  0.00000000E+00  0.00000000E+00
  0.00000000E+00  0.00000000E+00  0.00000000E+00
  0.00000000E+00  0.00000000E+00  0.00000000E+00
  0.00000000E+00  0.00000000E+00  0.00000000E+00
  0.00000000E+00  0.00000000E+00  0.00000000E+00
  0.00000000E+00  0.00000000E+00  0.00000000E+00
  0.00000000E+00  0.00000000E+00  0.00000000E+00
  0.00000000E+00  0.00000000E+00  0.00000000E+00
  0.00000000E+00  0.00000000E+00  0.00000000E+00
  0.00000000E+00  0.00000000E+00  0.00000000E+00
  0.00000000E+00  0.00000000E+00  0.00000000E+00
  0.00000000E+00  0.00000000E+00  0.00000000E+00
  0.00000000E+00  0.00000000E+00  0.00000000E+00
  0.00000000E+00  0.00000000E+00  0.00000000E+00
  0.00000000E+00  0.00000000E+00  0.00000000E+00
  0.00000000E+00  0.00000000E+00  0.00000000E+00
  0.00000000E+00  0.00000000E+00  0.00000000E+00
  0.00000000E+00  0.00000000E+00  0.00000000E+00
  0.00000000E+00  0.00000000E+00  0.00000000E+00
  0.00000000E+00  0.00000000E+00  0.00000000E+00
  0.00000000E+00  0.00000000E+00  0.00000000E+00
  0.00000000E+00  0.00000000E+00  0.00000000E+00
  0.00000000E+00  0.00000000E+00  0.00000000E+00
  0.00000000E+00  0.00000000E+00  0.00000000E+00
  0.00000000E+00  0.00000000E+00  0.00000000E+00
  0.00000000E+00  0.00000000E+00  0.00000000E+00
  0.00000000E+00  0.00000000E+00  0.00000000E+00
  0.00000000E+00  0.00000000E+00  0.00000000E+00
  0.00000000E+00  0.00000000E+00  0.00000000E+00
  0.00000000E+00  0.00000000E+00  0.00000000E+00
  0.00000000E+00  0.00000000E+00  0.00000000E+00
  0.00000000E+00  0.00000000E+00  0.00000000E+00
  0.00000000E+00  0.00000000E+00  0.00000000E+00
  0.00000000E+00  0.00000000E+00  0.00000000E+00
  0.00000000E+00  0.00000000E+00  0.00000000E+00
  0.00000000E+00  0.00000000E+00  0.00000000E+00
  0.00000000E+00  0.00000000E+00  0.00000000E+00
  0.00000000E+00  0.00000000E+00  0.00000000E+00
  0.00000000E+00  0.00000000E+00  0.00000000E+00
  0.00000000E+00  0.00000000E+00  0.00000000E+00
  0.00000000E+00  0.00000000E+00  0.00000000E+00
  0.00000000E+00  0.00000000E+00  0.00000000E+00
  0.00000000E+00  0.00000000E+00  0.00000000E+00
  0.00000000E+00  0.00000000E+00  0.00000000E+00
  0.00000000E+00  0.00000000E+00  0.00000000E+00
  0.00000000E+00  0.00000000E+00  0.00000000E+00
  0.00000000E+00  0.00000000E+00  0.00000000E+00
  0.00000000E+00  0.00000000E+00  0.00000000E+00
  0.00000000E+00  0.00000000E+00  0.00000000E+00
  0.00000000E+00  0.00000000E+00  0.00000000E+00
  0.00000000E+00  0.00000000E+00  0.00000000E+00
  0.00000000E+00  0.00000000E+00  0.00000000E+00
  0.00000000E+00  0.00000000E+00  0.00000000E+00
  0.00000000E+00  0.00000000E+00  0.00000000E+00
  0.00000000E+00  0.00000000E+00  0.00000000E+00
  0.00000000E+00  0.00000000E+00  0.00000000E+00
  0.00000000E+00  0.00000000E+00  0.00000000E+00
  0.00000000E+00  0.00000000E+00  0.00000000E+00
  0.00000000E+00  0.00000000E+00  0.00000000E+00
  0.00000000E+00  0.00000000E+00  0.00000000E+00
  0.00000000E+00  0.00000000E+00  0.00000000E+00
  0.00000000E+00  0.00000000E+00  0.00000000E+00
  0.00000000E+00  0.00000000E+00  0.00000000E+00
  0.00000000E+00  0.00000000E+00  0.00000000E+00
  0.00000000E+00  0.00000000E+00  0.00000000E+00
  0.00000000E+00  0.00000000E+00  0.00000000E+00
  0.00000000E+00  0.00000000E+00  0.00000000E+00
  0.00000000E+00  0.00000000E+00  0.00000000E+00
  0.00000000E+00  0.00000000E+00  0.00000000E+00
  0.00000000E+00  0.00000000E+00  0.00000000E+00
  0.00000000E+00  0.00000000E+00  0.00000000E+00
