Comment                                 
   1.00000000000000     
    20.0000000000000000    0.0000000000000000    0.0000000000000000
     0.0000000000000000   20.0000000000000000    0.0000000000000000
     0.0000000000000000    0.0000000000000000   20.0000000000000000
   Ag   Au
     1     3
Direct
  0.3608428390129571  0.3848207806719806  0.4249999999999972
  0.4980839089334497  0.3883619367784418  0.4249999999999972
  0.4269735567248157  0.4992421006339116  0.4249999999999972
  0.2954246453287729  0.5055476819156700  0.4249999999999972
 
  0.00000000E+00  0.00000000E+00  0.00000000E+00
  0.00000000E+00  0.00000000E+00  0.00000000E+00
  0.00000000E+00  0.00000000E+00  0.00000000E+00
  0.00000000E+00  0.00000000E+00  0.00000000E+00
