Comment                                 
   1.00000000000000     
    20.0000000000000000    0.0000000000000000    0.0000000000000000
     0.0000000000000000   20.0000000000000000    0.0000000000000000
     0.0000000000000000    0.0000000000000000   20.0000000000000000
   Pd   Au
     1     3
Direct
  0.3609517841842291  0.3850556789266334  0.4249999999999972
  0.4930867924083057  0.3886336360400319  0.4249999999999972
  0.4291247331480911  0.5029200916479691  0.4249999999999972
  0.2981616402593695  0.5013630933853697  0.4249999999999972
 
  0.00000000E+00  0.00000000E+00  0.00000000E+00
  0.00000000E+00  0.00000000E+00  0.00000000E+00
  0.00000000E+00  0.00000000E+00  0.00000000E+00
  0.00000000E+00  0.00000000E+00  0.00000000E+00
