C4                                      
   1.00000000000000     
    14.8063199999999995    0.0000000000000000    0.0000000000000000
    -7.4031599999999997   12.8226492600000004    0.0000000000000000
     0.0000000000000000    0.0000000000000000   18.0000000000000000
   C    Cu   Au
    72     1     3
Direct
  0.0550825849755086  0.1106746667623213  0.3634485946983617
  0.9995604276939005  0.9995994708548253  0.3632683093470845
  0.0552152902276291  0.2774826648363558  0.3638917415601384
  0.9996043909760814  0.1662924491167246  0.3635732063300807
  0.0550673040080056  0.4441443988772491  0.3633164190712748
  0.9995894648331642  0.3330538309696465  0.3633833099129191
  0.0551266552486069  0.6108093564891703  0.3627425839304692
  0.9995249659558851  0.4996890939604057  0.3627076296597878
  0.0551702461049928  0.7774467672742844  0.3627441861229883
  0.9995289176676678  0.6663074214395408  0.3625728327320417
  0.0551503686537700  0.9440626037171000  0.3630570428610014
  0.9995537784706485  0.8329682032146621  0.3629754545292911
  0.2218159120749092  0.1106552888314454  0.3628546436823328
  0.1662211359765351  0.9995606230807397  0.3627749620842380
  0.2215118314686038  0.2770535580740159  0.3642998366156647
  0.1660808397289983  0.1660416412089205  0.3634693068186223
  0.2215249013954832  0.4442071131125616  0.3647144409928202
  0.1661323596647932  0.3329404059458412  0.3645334272030567
  0.2217879868116626  0.6109041124900116  0.3634756899289471
  0.1660688798421717  0.4997840640641371  0.3638574020995193
  0.2218390750199362  0.7774897219144918  0.3626793264956945
  0.1661951698239221  0.6664064302752379  0.3629851918923279
  0.2218587318782710  0.9441051409509384  0.3624508237887909
  0.1662064911360304  0.8329792149908570  0.3626143139209077
  0.3885840484289744  0.1106715101376992  0.3616508145441202
  0.3329587687494566  0.9996410799294253  0.3620011289905136
  0.3884923384310426  0.2770519959959898  0.3625310315726935
  0.3328726187388114  0.1660667994485152  0.3621672213929870
  0.3878479016972491  0.4438123861394416  0.3676684496051195
  0.3323308563645355  0.3318793680300942  0.3647518008050312
  0.3884198024589622  0.6111338499688586  0.3642338847982174
  0.3323229092597799  0.5001856769409159  0.3656029686202871
  0.3885493220321834  0.7776489448923058  0.3628738110186731
  0.3328422278230221  0.6665459092030801  0.3634456383123137
  0.3886052081136597  0.9441855651021029  0.3620831001102545
  0.3329410680957139  0.8330799232964097  0.3625275036849871
  0.5552587790213508  0.1108041838232339  0.3615411487076514
  0.4996178668247708  0.9997060469895089  0.3619490455527057
  0.5553517578815104  0.2773176474947618  0.3609124732032711
  0.4996609358203301  0.1662361199428730  0.3612342171414014
  0.5559460149692015  0.4436722777281190  0.3629777722921546
  0.4998395288452571  0.3327265943458215  0.3615868868246750
  0.5558877327711116  0.6118982575349818  0.3652251238328219
  0.5004207271927896  0.4999749143609762  0.3671685238952378
  0.5553435541943728  0.7777720405293707  0.3634178134515764
  0.4997714009087630  0.6667666762716706  0.3642246038848285
  0.5552509562681394  0.9442361965404942  0.3624173738768874
  0.4996418528586304  0.8331933409844439  0.3628555602339816
  0.7219486940201705  0.1108728113050290  0.3622995271445859
  0.6663366533750761  0.9997498711348172  0.3626003636314721
  0.7219306732000490  0.2774404236397530  0.3614241909559297
  0.6663309062884295  0.1663762706330516  0.3616842142309338
  0.7220440103213264  0.4440703549992477  0.3611435625271469
  0.6663581804728054  0.3329424568299402  0.3609791377477123
  0.7220053469080199  0.6108151697553907  0.3628940736874640
  0.6666281079413920  0.4996445897427790  0.3618260636380839
  0.7220882424313260  0.7777339015104374  0.3635550523222761
  0.6666628027509987  0.6666962036150323  0.3639098021905198
  0.7219612786390144  0.9442795585335944  0.3630992926163827
  0.6663921860944129  0.8331675366549618  0.3634417154586131
  0.8885707180044946  0.1108357019422925  0.3632068001667861
  0.8330177792218549  0.9997421891342384  0.3631997475864281
  0.8885569293331699  0.2775014924662287  0.3627302840442184
  0.8329612271426399  0.1663680433067896  0.3627574745525521
  0.8885647586072096  0.4441305433603162  0.3620553003382412
  0.8329789666591836  0.3330196426353993  0.3620226683601544
  0.8885092535003167  0.6107517217417353  0.3622644889821700
  0.8330460999397999  0.4996914082452690  0.3616195564671827
  0.8885213565574901  0.7774605305692575  0.3631175147947090
  0.8328838743883367  0.6662880477474218  0.3627470026365316
  0.8885962876047202  0.9441857469898522  0.3632878220654234
  0.8330789248748189  0.8331070296834895  0.3632944662652378
  0.4438045291092436  0.4655514974671675  0.4767941123790393
  0.3699687190877512  0.4451529062683974  0.6019731580265599
  0.5453911441250696  0.4448678158008477  0.5792281665998971
  0.7125636120140939  0.4444791062047031  0.5499094679529080
 
  0.00000000E+00  0.00000000E+00  0.00000000E+00
  0.00000000E+00  0.00000000E+00  0.00000000E+00
  0.00000000E+00  0.00000000E+00  0.00000000E+00
  0.00000000E+00  0.00000000E+00  0.00000000E+00
  0.00000000E+00  0.00000000E+00  0.00000000E+00
  0.00000000E+00  0.00000000E+00  0.00000000E+00
  0.00000000E+00  0.00000000E+00  0.00000000E+00
  0.00000000E+00  0.00000000E+00  0.00000000E+00
  0.00000000E+00  0.00000000E+00  0.00000000E+00
  0.00000000E+00  0.00000000E+00  0.00000000E+00
  0.00000000E+00  0.00000000E+00  0.00000000E+00
  0.00000000E+00  0.00000000E+00  0.00000000E+00
  0.00000000E+00  0.00000000E+00  0.00000000E+00
  0.00000000E+00  0.00000000E+00  0.00000000E+00
  0.00000000E+00  0.00000000E+00  0.00000000E+00
  0.00000000E+00  0.00000000E+00  0.00000000E+00
  0.00000000E+00  0.00000000E+00  0.00000000E+00
  0.00000000E+00  0.00000000E+00  0.00000000E+00
  0.00000000E+00  0.00000000E+00  0.00000000E+00
  0.00000000E+00  0.00000000E+00  0.00000000E+00
  0.00000000E+00  0.00000000E+00  0.00000000E+00
  0.00000000E+00  0.00000000E+00  0.00000000E+00
  0.00000000E+00  0.00000000E+00  0.00000000E+00
  0.00000000E+00  0.00000000E+00  0.00000000E+00
  0.00000000E+00  0.00000000E+00  0.00000000E+00
  0.00000000E+00  0.00000000E+00  0.00000000E+00
  0.00000000E+00  0.00000000E+00  0.00000000E+00
  0.00000000E+00  0.00000000E+00  0.00000000E+00
  0.00000000E+00  0.00000000E+00  0.00000000E+00
  0.00000000E+00  0.00000000E+00  0.00000000E+00
  0.00000000E+00  0.00000000E+00  0.00000000E+00
  0.00000000E+00  0.00000000E+00  0.00000000E+00
  0.00000000E+00  0.00000000E+00  0.00000000E+00
  0.00000000E+00  0.00000000E+00  0.00000000E+00
  0.00000000E+00  0.00000000E+00  0.00000000E+00
  0.00000000E+00  0.00000000E+00  0.00000000E+00
  0.00000000E+00  0.00000000E+00  0.00000000E+00
  0.00000000E+00  0.00000000E+00  0.00000000E+00
  0.00000000E+00  0.00000000E+00  0.00000000E+00
  0.00000000E+00  0.00000000E+00  0.00000000E+00
  0.00000000E+00  0.00000000E+00  0.00000000E+00
  0.00000000E+00  0.00000000E+00  0.00000000E+00
  0.00000000E+00  0.00000000E+00  0.00000000E+00
  0.00000000E+00  0.00000000E+00  0.00000000E+00
  0.00000000E+00  0.00000000E+00  0.00000000E+00
  0.00000000E+00  0.00000000E+00  0.00000000E+00
  0.00000000E+00  0.00000000E+00  0.00000000E+00
  0.00000000E+00  0.00000000E+00  0.00000000E+00
  0.00000000E+00  0.00000000E+00  0.00000000E+00
  0.00000000E+00  0.00000000E+00  0.00000000E+00
  0.00000000E+00  0.00000000E+00  0.00000000E+00
  0.00000000E+00  0.00000000E+00  0.00000000E+00
  0.00000000E+00  0.00000000E+00  0.00000000E+00
  0.00000000E+00  0.00000000E+00  0.00000000E+00
  0.00000000E+00  0.00000000E+00  0.00000000E+00
  0.00000000E+00  0.00000000E+00  0.00000000E+00
  0.00000000E+00  0.00000000E+00  0.00000000E+00
  0.00000000E+00  0.00000000E+00  0.00000000E+00
  0.00000000E+00  0.00000000E+00  0.00000000E+00
  0.00000000E+00  0.00000000E+00  0.00000000E+00
  0.00000000E+00  0.00000000E+00  0.00000000E+00
  0.00000000E+00  0.00000000E+00  0.00000000E+00
  0.00000000E+00  0.00000000E+00  0.00000000E+00
  0.00000000E+00  0.00000000E+00  0.00000000E+00
  0.00000000E+00  0.00000000E+00  0.00000000E+00
  0.00000000E+00  0.00000000E+00  0.00000000E+00
  0.00000000E+00  0.00000000E+00  0.00000000E+00
  0.00000000E+00  0.00000000E+00  0.00000000E+00
  0.00000000E+00  0.00000000E+00  0.00000000E+00
  0.00000000E+00  0.00000000E+00  0.00000000E+00
  0.00000000E+00  0.00000000E+00  0.00000000E+00
  0.00000000E+00  0.00000000E+00  0.00000000E+00
  0.00000000E+00  0.00000000E+00  0.00000000E+00
  0.00000000E+00  0.00000000E+00  0.00000000E+00
  0.00000000E+00  0.00000000E+00  0.00000000E+00
  0.00000000E+00  0.00000000E+00  0.00000000E+00
