C4                                      
   1.00000000000000     
    14.8063199999999995    0.0000000000000000    0.0000000000000000
    -7.4031599999999997   12.8226492600000004    0.0000000000000000
     0.0000000000000000    0.0000000000000000   18.0000000000000000
   C    Au
    72     4
Direct
  0.0557123505645478  0.1111356556125571  0.3618974222507845
  0.0001699532793253  0.0000219120312082  0.3628741597883902
  0.0557564670464643  0.2777995579757970  0.3605330863119462
  0.0001930010217350  0.1667062363499596  0.3616216846226905
  0.0557624362358453  0.4444574835540749  0.3615707588754020
  0.0002062725544860  0.3333534598084498  0.3615260450802467
  0.0557296868646944  0.6111006778583032  0.3629670360183255
  0.0002029551398550  0.4999980384560061  0.3626121332712131
  0.0557212617755383  0.7777814625238193  0.3635446231195445
  0.0001657267970998  0.6666456992232312  0.3634245381244696
  0.0557246504836968  0.9444605507646671  0.3631458998064900
  0.0001583203661042  0.8333456316553907  0.3635346888913062
  0.2224250649205572  0.1111542180836054  0.3618406560325838
  0.1668461064155622  0.0000355527962270  0.3628541863221315
  0.2224346886117061  0.2778490117389723  0.3594759979865501
  0.1668448149005926  0.1666884494191265  0.3611208810674142
  0.2223316405497968  0.4444244400279302  0.3591862395559104
  0.1668058722629340  0.3333773657777996  0.3591230198980213
  0.2223709478567031  0.6110801200528471  0.3618015153538465
  0.1668633659670320  0.4999939303917742  0.3606330449977619
  0.2223745345918999  0.7777567799179721  0.3633478938549004
  0.1668425722926230  0.6666488526289100  0.3628240166396139
  0.2223874097640888  0.9444750580758736  0.3632920502663026
  0.1668292564390654  0.8333409002076877  0.3635163712303324
  0.3890521212092111  0.1111624442998220  0.3626288844299452
  0.3335183166735334  0.0000571184167271  0.3632325951306825
  0.3890451038047971  0.2778213507962164  0.3603736672748141
  0.3335162366413726  0.1667367220141003  0.3615189955230775
  0.3890891608496645  0.4444273400099306  0.3590864547321502
  0.3335651169595053  0.3333827263636735  0.3590164755258982
  0.3890443053864487  0.6111083126163024  0.3612926054892895
  0.3334741564949724  0.4999445463412826  0.3595865827909961
  0.3890235930217543  0.7777753889052903  0.3630374902183817
  0.3334589974448932  0.6666547422418034  0.3620957596209635
  0.3890650617130760  0.9444818414149623  0.3635395846926315
  0.3334970970924260  0.8333470970775494  0.3633921091941517
  0.5557248480103496  0.1111583575303925  0.3634017958560847
  0.5001644805209082  0.0000361074058972  0.3635759815391069
  0.5557119454719199  0.2778285491148438  0.3625126288820510
  0.5001660327358337  0.1667078787472889  0.3628660987821419
  0.5556906215885036  0.4444679920252312  0.3614685860001714
  0.5001477485487129  0.3333718937038341  0.3613962034156657
  0.5556760446025422  0.6110789634788887  0.3617044326965697
  0.5001263456365024  0.5000014036318703  0.3605295414426521
  0.5557045446935405  0.7777812590501867  0.3629655080799949
  0.5001669275558172  0.6666541338876968  0.3619969592755012
  0.5557194065460962  0.9444659487341696  0.3635766700613132
  0.5001509966491469  0.8333480890950469  0.3632662285534707
  0.7224338279264373  0.1111672995350617  0.3633404983256838
  0.6668448256308181  0.0000423411611905  0.3634993451089770
  0.7224118595376154  0.2778151541132701  0.3632905277300935
  0.6668578442337889  0.1667158373801314  0.3633927060873745
  0.7223745082690556  0.4444755459377490  0.3631073986562967
  0.6668214238364030  0.3333631976693567  0.3630821894484768
  0.7223574473954741  0.6111077380122438  0.3629822279294359
  0.6667931308085500  0.5000049669848678  0.3626059132018398
  0.7223590581549573  0.7777606600812632  0.3632999759828266
  0.6667862641608693  0.6666529703903521  0.3627723149749400
  0.7223908393971854  0.9444837709120009  0.3634674071945341
  0.6668152881829883  0.8333497695848848  0.3633391510599253
  0.8890934826587156  0.1111466136438537  0.3626397172982223
  0.8335239762186504  0.0000452301139831  0.3631999932064218
  0.8891062428414997  0.2778201170816246  0.3625495750307763
  0.8335376288945966  0.1667093510815931  0.3628377153640088
  0.8891066944424679  0.4444709874063975  0.3631009727606340
  0.8335474654207431  0.3333590219664870  0.3630799967770457
  0.8890425111882365  0.6111036861656842  0.3634558899591838
  0.8335178108115002  0.5000165370851661  0.3633220606572394
  0.8890244809789323  0.7777630165607050  0.3635529374144184
  0.8334614900716346  0.6666443497002916  0.3634319590590209
  0.8890631077395099  0.9444590196733387  0.3632750035544419
  0.8334914399749138  0.8333309082816456  0.3635135481429757
  0.3255255019649468  0.4915003264076176  0.5474134408337079
  0.1163313610035246  0.3897624768113701  0.5491673902548087
  0.2216306011010332  0.2856072421618023  0.5474918954611070
  0.4309243206015481  0.3874422822608850  0.5495884399516626
 
  0.00000000E+00  0.00000000E+00  0.00000000E+00
  0.00000000E+00  0.00000000E+00  0.00000000E+00
  0.00000000E+00  0.00000000E+00  0.00000000E+00
  0.00000000E+00  0.00000000E+00  0.00000000E+00
  0.00000000E+00  0.00000000E+00  0.00000000E+00
  0.00000000E+00  0.00000000E+00  0.00000000E+00
  0.00000000E+00  0.00000000E+00  0.00000000E+00
  0.00000000E+00  0.00000000E+00  0.00000000E+00
  0.00000000E+00  0.00000000E+00  0.00000000E+00
  0.00000000E+00  0.00000000E+00  0.00000000E+00
  0.00000000E+00  0.00000000E+00  0.00000000E+00
  0.00000000E+00  0.00000000E+00  0.00000000E+00
  0.00000000E+00  0.00000000E+00  0.00000000E+00
  0.00000000E+00  0.00000000E+00  0.00000000E+00
  0.00000000E+00  0.00000000E+00  0.00000000E+00
  0.00000000E+00  0.00000000E+00  0.00000000E+00
  0.00000000E+00  0.00000000E+00  0.00000000E+00
  0.00000000E+00  0.00000000E+00  0.00000000E+00
  0.00000000E+00  0.00000000E+00  0.00000000E+00
  0.00000000E+00  0.00000000E+00  0.00000000E+00
  0.00000000E+00  0.00000000E+00  0.00000000E+00
  0.00000000E+00  0.00000000E+00  0.00000000E+00
  0.00000000E+00  0.00000000E+00  0.00000000E+00
  0.00000000E+00  0.00000000E+00  0.00000000E+00
  0.00000000E+00  0.00000000E+00  0.00000000E+00
  0.00000000E+00  0.00000000E+00  0.00000000E+00
  0.00000000E+00  0.00000000E+00  0.00000000E+00
  0.00000000E+00  0.00000000E+00  0.00000000E+00
  0.00000000E+00  0.00000000E+00  0.00000000E+00
  0.00000000E+00  0.00000000E+00  0.00000000E+00
  0.00000000E+00  0.00000000E+00  0.00000000E+00
  0.00000000E+00  0.00000000E+00  0.00000000E+00
  0.00000000E+00  0.00000000E+00  0.00000000E+00
  0.00000000E+00  0.00000000E+00  0.00000000E+00
  0.00000000E+00  0.00000000E+00  0.00000000E+00
  0.00000000E+00  0.00000000E+00  0.00000000E+00
  0.00000000E+00  0.00000000E+00  0.00000000E+00
  0.00000000E+00  0.00000000E+00  0.00000000E+00
  0.00000000E+00  0.00000000E+00  0.00000000E+00
  0.00000000E+00  0.00000000E+00  0.00000000E+00
  0.00000000E+00  0.00000000E+00  0.00000000E+00
  0.00000000E+00  0.00000000E+00  0.00000000E+00
  0.00000000E+00  0.00000000E+00  0.00000000E+00
  0.00000000E+00  0.00000000E+00  0.00000000E+00
  0.00000000E+00  0.00000000E+00  0.00000000E+00
  0.00000000E+00  0.00000000E+00  0.00000000E+00
  0.00000000E+00  0.00000000E+00  0.00000000E+00
  0.00000000E+00  0.00000000E+00  0.00000000E+00
  0.00000000E+00  0.00000000E+00  0.00000000E+00
  0.00000000E+00  0.00000000E+00  0.00000000E+00
  0.00000000E+00  0.00000000E+00  0.00000000E+00
  0.00000000E+00  0.00000000E+00  0.00000000E+00
  0.00000000E+00  0.00000000E+00  0.00000000E+00
  0.00000000E+00  0.00000000E+00  0.00000000E+00
  0.00000000E+00  0.00000000E+00  0.00000000E+00
  0.00000000E+00  0.00000000E+00  0.00000000E+00
  0.00000000E+00  0.00000000E+00  0.00000000E+00
  0.00000000E+00  0.00000000E+00  0.00000000E+00
  0.00000000E+00  0.00000000E+00  0.00000000E+00
  0.00000000E+00  0.00000000E+00  0.00000000E+00
  0.00000000E+00  0.00000000E+00  0.00000000E+00
  0.00000000E+00  0.00000000E+00  0.00000000E+00
  0.00000000E+00  0.00000000E+00  0.00000000E+00
  0.00000000E+00  0.00000000E+00  0.00000000E+00
  0.00000000E+00  0.00000000E+00  0.00000000E+00
  0.00000000E+00  0.00000000E+00  0.00000000E+00
  0.00000000E+00  0.00000000E+00  0.00000000E+00
  0.00000000E+00  0.00000000E+00  0.00000000E+00
  0.00000000E+00  0.00000000E+00  0.00000000E+00
  0.00000000E+00  0.00000000E+00  0.00000000E+00
  0.00000000E+00  0.00000000E+00  0.00000000E+00
  0.00000000E+00  0.00000000E+00  0.00000000E+00
  0.00000000E+00  0.00000000E+00  0.00000000E+00
  0.00000000E+00  0.00000000E+00  0.00000000E+00
  0.00000000E+00  0.00000000E+00  0.00000000E+00
  0.00000000E+00  0.00000000E+00  0.00000000E+00
