C4                                      
   1.00000000000000     
    14.8063199999999995    0.0000000000000000    0.0000000000000000
    -7.4031599999999997   12.8226492600000004    0.0000000000000000
     0.0000000000000000    0.0000000000000000   17.0000000000000000
   C    Au
    72     1
Direct
  0.0555580828327820  0.1111088871672195  0.3834020643158738
  0.9999958303233782  0.9999963114213344  0.3832819374495600
  0.0555580728327811  0.2777829556655647  0.3834020643158738
  0.9999999899999992  0.1666666500000034  0.3834477699117684
  0.0555571995005906  0.4444520254115432  0.3832094613046948
  0.9999958103233766  0.3333328189020435  0.3832819374495600
  0.0555315980683062  0.6111042171165195  0.3831169261830709
  0.9999766664002578  0.4999920860300477  0.3830337519195055
  0.0555315880683054  0.7777611809517850  0.3831169261830709
  0.9999336186777228  0.6666334843388597  0.3829972218793998
  0.0555571695005881  0.9444389640890378  0.3832094613046948
  0.9999766564002570  0.8333179303702138  0.3830337519195055
  0.2222280059109565  0.1111098004994133  0.3832094613046948
  0.1666662797321550  0.0000003902678429  0.3832620715809014
  0.2222419124795678  0.2777878312397846  0.3831770561322614
  0.1666703485786627  0.1666708196766251  0.3832819374495600
  0.2222280259109581  0.4444520254115432  0.3832094613046948
  0.1666703385786690  0.3333328189020435  0.3832819374495600
  0.2222150616314806  0.6110969332629637  0.3833107434353664
  0.1666662897321558  0.4999992494643166  0.3832620715809014
  0.2222112227607340  0.7777725063803729  0.3834325691234213
  0.1666508203840849  0.6666578127106675  0.3833240179205504
  0.2222150516314798  0.9444519183685145  0.3833107434353664
  0.1666508103840840  0.8333263476734203  0.3833240179205504
  0.3889058090482180  0.1111353919316969  0.3831169261830709
  0.3333403123265839  0.0000158496159131  0.3833240179205504
  0.3889169469919764  0.2777994558422137  0.3827995374823203
  0.3333487296297903  0.1666899935997463  0.3830337519195055
  0.3889169769919718  0.4444513011497619  0.3827995374823203
  0.3333567482825970  0.3333450141412939  0.3829359938061287
  0.3889058190482189  0.6111042171165195  0.3831169261830709
  0.3333487496297849  0.4999920860300477  0.3830337519195055
  0.3888944836196302  0.7777725063803729  0.3834325691234213
  0.3333403223265847  0.6666578127106675  0.3833240179205504
  0.3888944736196294  0.9444557572392540  0.3834325691234213
  0.3333333300000021  0.8333333300000021  0.3834939687712122
  0.5555627828834773  0.1111353919316969  0.3831169261830709
  0.5000088672893312  0.0000158496159131  0.3833240179205504
  0.5555762240776474  0.2778192581552972  0.3827183704640120
  0.5000331856611382  0.1667330413222814  0.3829972218793998
  0.5554040596250758  0.4443689498125352  0.3826532597529635
  0.4999923018510231  0.3333396913767004  0.3825799033747259
  0.5555762540776499  0.6110907659223486  0.3827183704640120
  0.4999923318510255  0.4999859604743335  0.3825799033747259
  0.5555627928834781  0.7777611809517850  0.3831169261830709
  0.5000332056611398  0.6666334843388597  0.3829972218793998
  0.5555700667370331  0.9444519183685145  0.3833107434353664
  0.5000088672893312  0.8333263476734203  0.3833240179205504
  0.7222149945884553  0.1111098004994133  0.3832094613046948
  0.6666674505356838  0.0000003902678429  0.3832620715809014
  0.7222157088502428  0.2777994558422137  0.3827995374823203
  0.6666746039699518  0.1666899935997463  0.3830337519195055
  0.7222980901874649  0.4443689498125352  0.3826532597529635
  0.6666807195256723  0.3333396913767004  0.3825799033747259
  0.7222980801874641  0.6112629703749235  0.3826532597529635
  0.6666666799999987  0.5000000300000025  0.3833631744768056
  0.7222157288502373  0.7777500330080258  0.3827995374823203
  0.6666807395256740  0.6666743581489740  0.3825799033747259
  0.7222149945884553  0.9444389640890378  0.3832094613046948
  0.6666746039699518  0.8333179303702138  0.3830337519195055
  0.8888840043344359  0.1111088871672195  0.3834020643158738
  0.8333338110979582  0.9999963114213344  0.3832819374495600
  0.8888791187602223  0.2777878312397846  0.3831770561322614
  0.8333338110979582  0.1666708196766251  0.3832819374495600
  0.8888675241577815  0.4444513011497619  0.3827995374823203
  0.8333216058587070  0.3333450141412939  0.3829359938061287
  0.8888477118447042  0.6110907659223486  0.3827183704640120
  0.8333269586232959  0.4999859604743335  0.3825799033747259
  0.8888675041577869  0.7777500330080258  0.3827995374823203
  0.8333269486233021  0.6666743581489740  0.3825799033747259
  0.8888791187602223  0.9444250475204328  0.3831770561322614
  0.8333216158587078  0.8333099017174064  0.3829359938061287
  0.6666666799999987  0.5000000300000025  0.5653533415628189

