Comment                                 
   1.00000000000000     
    20.0000000000000000    0.0000000000000000    0.0000000000000000
     0.0000000000000000   20.0000000000000000    0.0000000000000000
     0.0000000000000000    0.0000000000000000   20.0000000000000000
   Pt   Au
     1     2
Direct
  0.4181805670056633  0.4854966021059965  0.4249999999999972
  0.5450527421561233  0.4848153510838884  0.4249999999999972
  0.4681291908382121  0.6020945468101147  0.4249999999999972
 
  0.00000000E+00  0.00000000E+00  0.00000000E+00
  0.00000000E+00  0.00000000E+00  0.00000000E+00
  0.00000000E+00  0.00000000E+00  0.00000000E+00
