POSCAR                                  
   1.00000000000000     
    19.0000000000000000    0.0000000000000000    0.0000000000000000
     0.0000000000000000   19.0000000000000000    0.0000000000000000
     0.0000000000000000    0.0000000000000000   19.0000000000000000
   Au
     3
Direct
  0.3788203390364515  0.4811301808561907  0.5047605889298765
  0.4948818866075797  0.5477840279922646  0.5041277997926485
  0.6248855543559699  0.5167048011515618  0.4984749212774915
 
  0.00000000E+00  0.00000000E+00  0.00000000E+00
  0.00000000E+00  0.00000000E+00  0.00000000E+00
  0.00000000E+00  0.00000000E+00  0.00000000E+00
