C4                                      
   1.00000000000000     
    14.8063199999999995    0.0000000000000000    0.0000000000000000
    -7.4031599999999997   12.8226492600000004    0.0000000000000000
     0.0000000000000000    0.0000000000000000   18.0000000000000000
   C    Ni   Au
    72     2     2
Direct
  0.0551076458350934  0.1108329469251288  0.3642171701692689
  0.9998880946644988  0.0000620572116929  0.3630192421233431
  0.0539065443643878  0.2769562311537896  0.3668161522274076
  0.9992729094838921  0.1661954471396072  0.3648436988477854
  0.0550110458698967  0.4446929535995920  0.3647448353333758
  0.9992187029206150  0.3331204390681251  0.3647525155474298
  0.0554265719233555  0.6113495655586831  0.3628129103370412
  0.9997503356792592  0.5002049025724702  0.3630429179186905
  0.0555258747425214  0.7779595027544914  0.3621042626466746
  0.9999395287953092  0.6669047060278075  0.3621159076460216
  0.0555525021049448  0.9445679671549314  0.3626216705373722
  0.0000609794716837  0.8335901232872871  0.3621031136619166
  0.2222798466788802  0.1108511211862862  0.3642686071034262
  0.1667194865183177  0.0000697916301746  0.3630226131942322
  0.2213938747841127  0.2762320581211029  0.3680875330362952
  0.1662955619381918  0.1660497194119372  0.3650568099347851
  0.2221482986209793  0.4454916882334814  0.3709442708103552
  0.1655525445175172  0.3323164703546766  0.3709181968657163
  0.2219919142030520  0.6115984415614335  0.3648565661427483
  0.1658657236368484  0.5008458139388594  0.3668292781075664
  0.2221497447845806  0.7779758444739642  0.3626104211702810
  0.1664347559162636  0.6669997476368152  0.3633116959365239
  0.2222598437658121  0.9444590479879693  0.3626000291283660
  0.1666252352270305  0.8334962445647349  0.3622984598112424
  0.3890153480479128  0.1107930505877235  0.3634352790587414
  0.3333127289227988  0.9998262600880139  0.3626636714947011
  0.3895999775263306  0.2769630600075814  0.3669343522286752
  0.3334749517114162  0.1662036844390187  0.3649705859119479
  0.3898996763776452  0.4454899676933977  0.3709907284596170
  0.3333107545225857  0.3323192662971763  0.3709585379504645
  0.3891457081631913  0.6117375154782749  0.3650759868421929
  0.3340563682436368  0.5015638366903872  0.3681237419906793
  0.3887398816441987  0.7777429184489151  0.3630079363226386
  0.3331843869566384  0.6669581267812319  0.3642239310991116
  0.3888373061866730  0.9443150783242444  0.3622986589716604
  0.3332035856194580  0.8333531558552494  0.3625845753861228
  0.5555103626006499  0.1108860272845220  0.3621467148419342
  0.4999177534587176  0.9998448972040279  0.3620969584777214
  0.5557158709493422  0.2776052535210027  0.3631763429716912
  0.5000235602833385  0.1664432564641771  0.3629366708246664
  0.5562494900460422  0.4447062262170434  0.3648529596070205
  0.5004557666987992  0.3331296374840775  0.3648726378820086
  0.5561828196274874  0.6116055422441846  0.3649308132249658
  0.5015455706772229  0.5008503814662291  0.3669082677467870
  0.5555631507357432  0.7777483377361989  0.3629970424696225
  0.5003355939026974  0.6669604956125852  0.3642588954344959
  0.5553850130677631  0.9442324372914186  0.3620686753573708
  0.4999025838243440  0.8332580780191776  0.3626045853562943
  0.7219270681285437  0.1108933630831999  0.3621106480033021
  0.6664731766242937  0.9998512919838873  0.3620714802566027
  0.7221148247077309  0.2776557510880977  0.3619439100343484
  0.6665188205263775  0.1664903486664713  0.3619526764961023
  0.7223855429463768  0.4444828564183823  0.3622536969978967
  0.6668158443896033  0.3333413777796963  0.3622881855141671
  0.7224949836279677  0.6113643033990641  0.3629062284918874
  0.6670225639086311  0.5002171899332666  0.3631401909316025
  0.7223998463932162  0.7779840838986445  0.3626258141353418
  0.6671398605230152  0.6670121291776141  0.3633879377609475
  0.7220330402800457  0.9443181455370535  0.3622649829745299
  0.6667138171318783  0.8333533538604598  0.3625593829147249
  0.8883168606139407  0.1107925907964074  0.3633102330684181
  0.8330678563099667  0.9998301336410478  0.3625994943654760
  0.8884419175705460  0.2775973303901438  0.3630573458268884
  0.8329681400005740  0.1664490525524229  0.3628220986668964
  0.8886634858627502  0.4444723669002784  0.3621818142028985
  0.8330949763066400  0.3333391661959624  0.3622044998704581
  0.8889337663155530  0.6113054405170359  0.3619465151097359
  0.8333609761873220  0.5001476108090017  0.3619178507412286
  0.8889759372247070  0.7779618272595741  0.3621186656597928
  0.8335301815877756  0.6669134082160397  0.3621667494464589
  0.8887510707977100  0.9444665140538433  0.3625703916146747
  0.8334340014136714  0.8335110942761759  0.3622893076348248
  0.2006954348279848  0.3885606009555929  0.4782175610419230
  0.3544494130896254  0.3886459941222995  0.4782805692238128
  0.3388745851839943  0.5114853800299244  0.5669275909356202
  0.2159892312778737  0.2657496416675471  0.5668967299303347
 
  0.00000000E+00  0.00000000E+00  0.00000000E+00
  0.00000000E+00  0.00000000E+00  0.00000000E+00
  0.00000000E+00  0.00000000E+00  0.00000000E+00
  0.00000000E+00  0.00000000E+00  0.00000000E+00
  0.00000000E+00  0.00000000E+00  0.00000000E+00
  0.00000000E+00  0.00000000E+00  0.00000000E+00
  0.00000000E+00  0.00000000E+00  0.00000000E+00
  0.00000000E+00  0.00000000E+00  0.00000000E+00
  0.00000000E+00  0.00000000E+00  0.00000000E+00
  0.00000000E+00  0.00000000E+00  0.00000000E+00
  0.00000000E+00  0.00000000E+00  0.00000000E+00
  0.00000000E+00  0.00000000E+00  0.00000000E+00
  0.00000000E+00  0.00000000E+00  0.00000000E+00
  0.00000000E+00  0.00000000E+00  0.00000000E+00
  0.00000000E+00  0.00000000E+00  0.00000000E+00
  0.00000000E+00  0.00000000E+00  0.00000000E+00
  0.00000000E+00  0.00000000E+00  0.00000000E+00
  0.00000000E+00  0.00000000E+00  0.00000000E+00
  0.00000000E+00  0.00000000E+00  0.00000000E+00
  0.00000000E+00  0.00000000E+00  0.00000000E+00
  0.00000000E+00  0.00000000E+00  0.00000000E+00
  0.00000000E+00  0.00000000E+00  0.00000000E+00
  0.00000000E+00  0.00000000E+00  0.00000000E+00
  0.00000000E+00  0.00000000E+00  0.00000000E+00
  0.00000000E+00  0.00000000E+00  0.00000000E+00
  0.00000000E+00  0.00000000E+00  0.00000000E+00
  0.00000000E+00  0.00000000E+00  0.00000000E+00
  0.00000000E+00  0.00000000E+00  0.00000000E+00
  0.00000000E+00  0.00000000E+00  0.00000000E+00
  0.00000000E+00  0.00000000E+00  0.00000000E+00
  0.00000000E+00  0.00000000E+00  0.00000000E+00
  0.00000000E+00  0.00000000E+00  0.00000000E+00
  0.00000000E+00  0.00000000E+00  0.00000000E+00
  0.00000000E+00  0.00000000E+00  0.00000000E+00
  0.00000000E+00  0.00000000E+00  0.00000000E+00
  0.00000000E+00  0.00000000E+00  0.00000000E+00
  0.00000000E+00  0.00000000E+00  0.00000000E+00
  0.00000000E+00  0.00000000E+00  0.00000000E+00
  0.00000000E+00  0.00000000E+00  0.00000000E+00
  0.00000000E+00  0.00000000E+00  0.00000000E+00
  0.00000000E+00  0.00000000E+00  0.00000000E+00
  0.00000000E+00  0.00000000E+00  0.00000000E+00
  0.00000000E+00  0.00000000E+00  0.00000000E+00
  0.00000000E+00  0.00000000E+00  0.00000000E+00
  0.00000000E+00  0.00000000E+00  0.00000000E+00
  0.00000000E+00  0.00000000E+00  0.00000000E+00
  0.00000000E+00  0.00000000E+00  0.00000000E+00
  0.00000000E+00  0.00000000E+00  0.00000000E+00
  0.00000000E+00  0.00000000E+00  0.00000000E+00
  0.00000000E+00  0.00000000E+00  0.00000000E+00
  0.00000000E+00  0.00000000E+00  0.00000000E+00
  0.00000000E+00  0.00000000E+00  0.00000000E+00
  0.00000000E+00  0.00000000E+00  0.00000000E+00
  0.00000000E+00  0.00000000E+00  0.00000000E+00
  0.00000000E+00  0.00000000E+00  0.00000000E+00
  0.00000000E+00  0.00000000E+00  0.00000000E+00
  0.00000000E+00  0.00000000E+00  0.00000000E+00
  0.00000000E+00  0.00000000E+00  0.00000000E+00
  0.00000000E+00  0.00000000E+00  0.00000000E+00
  0.00000000E+00  0.00000000E+00  0.00000000E+00
  0.00000000E+00  0.00000000E+00  0.00000000E+00
  0.00000000E+00  0.00000000E+00  0.00000000E+00
  0.00000000E+00  0.00000000E+00  0.00000000E+00
  0.00000000E+00  0.00000000E+00  0.00000000E+00
  0.00000000E+00  0.00000000E+00  0.00000000E+00
  0.00000000E+00  0.00000000E+00  0.00000000E+00
  0.00000000E+00  0.00000000E+00  0.00000000E+00
  0.00000000E+00  0.00000000E+00  0.00000000E+00
  0.00000000E+00  0.00000000E+00  0.00000000E+00
  0.00000000E+00  0.00000000E+00  0.00000000E+00
  0.00000000E+00  0.00000000E+00  0.00000000E+00
  0.00000000E+00  0.00000000E+00  0.00000000E+00
  0.00000000E+00  0.00000000E+00  0.00000000E+00
  0.00000000E+00  0.00000000E+00  0.00000000E+00
  0.00000000E+00  0.00000000E+00  0.00000000E+00
  0.00000000E+00  0.00000000E+00  0.00000000E+00
