C4                                      
   1.00000000000000     
    14.8063199999999995    0.0000000000000000    0.0000000000000000
    -7.4031599999999997   12.8226492600000004    0.0000000000000000
     0.0000000000000000    0.0000000000000000   17.0000000000000000
   C    Ni   Au
    72     2     1
Direct
  0.0559042495408590  0.1113613586949711  0.3834140349207615
  0.0004001776734910  0.0003393889670775  0.3836569042912430
  0.0559372691631168  0.2779688445815580  0.3833693020042830
  0.0003156136189588  0.1668682556413330  0.3832175239057207
  0.0559042795408615  0.4445433808459001  0.3834140349207615
  0.0003156036189580  0.3334473179776225  0.3832175239057207
  0.0558079517005226  0.6111246765011700  0.3836847129938263
  0.0004001876734918  0.5000608187064088  0.3836569042912430
  0.0557279360897951  0.7778641980448953  0.3838450272687624
  0.0002046376704286  0.6666688239349341  0.3842577415927479
  0.0558079317005209  0.9446837251993472  0.3836847129938263
  0.0002046276704277  0.8335358137354874  0.3842577415927479
  0.2222128080603269  0.1109738795547486  0.3839411659153171
  0.1667100061950038  0.9999554245854227  0.3834649409851849
  0.2223995130676784  0.2777635628177038  0.3846133943933978
  0.1668093012499838  0.1666306062304059  0.3839060098051448
  0.2223995430676737  0.4446364302499717  0.3846133943933978
  0.1668574094872213  0.3334286797436121  0.3841781076908077
  0.2222128180603278  0.6112393985055817  0.3839411659153171
  0.1668093212499855  0.5001787150195938  0.3839060098051448
  0.2222884813406907  0.7778453222317196  0.3833298145066024
  0.1667100061950038  0.6667545916095747  0.3834649409851849
  0.2222884713406899  0.9444435991089790  0.3833298145066024
  0.1666465358225651  0.8333232679112825  0.3832924573489151
  0.3888612816679355  0.1108878754272880  0.3841719633713510
  0.3332935489264486  0.9998546001752970  0.3833922166474011
  0.3885470828939148  0.2771469281158971  0.3866660404636306
  0.3331464667470456  0.1661965059558170  0.3847955089800479
  0.3883523332689904  0.4441764216344950  0.3876018943249591
  0.3331095639723145  0.3329394463513324  0.3862263830968544
  0.3885471028939165  0.6114006147780131  0.3866660404636306
  0.3331095939723099  0.5001701276209900  0.3862263830968544
  0.3888612816679355  0.7779738562406493  0.3841719633713510
  0.3331464767470464  0.6669499607912357  0.3847955089800479
  0.3889426700405210  0.9444715550202574  0.3831569408956597
  0.3332935489264486  0.8334389487511586  0.3833922166474011
  0.5557511306617826  0.1110238543482751  0.3833023794096775
  0.5000722650055849  0.0000361325027924  0.3830454360710362
  0.5554966196961786  0.2771431263919197  0.3863363597379035
  0.4999970097726063  0.1663434735254015  0.3843461908938863
  0.5546574880641302  0.4433819419557210  0.3941630195563093
  0.4992723866835007  0.3317325475870518  0.3889522649652122
  0.5546574780641294  0.6112760361084071  0.3941630195563093
  0.4984415173277483  0.4992207836638727  0.3915157554267950
  0.5554966396961802  0.7783539433042534  0.3863363597379035
  0.4992724166835032  0.6675398390964560  0.3889522649652122
  0.5557511306617826  0.9447277163135084  0.3833023794096775
  0.4999970197726071  0.8336535262472111  0.3843461908938863
  0.7225251696629726  0.1112628048314832  0.3829076025278511
  0.6668531056763740  0.0002758098191435  0.3832202977807952
  0.7226089946674179  0.2776474798073139  0.3841449888981856
  0.6668530956763732  0.1665772758572430  0.3832202977807952
  0.7233324534076147  0.4437657369441794  0.3887829846744921
  0.6671058890896333  0.3329497223216791  0.3862347759495890
  0.7241519543249311  0.6120762221624645  0.3914522031096936
  0.6679450959727049  0.5000296341665518  0.3941645581929691
  0.7233324434076138  0.7795671964634394  0.3887829846744921
  0.6679450859727041  0.6679154918061627  0.3941645581929691
  0.7226090046674116  0.9449619448601041  0.3841449888981856
  0.6671058990896270  0.8341561467679526  0.3862347759495890
  0.8893120716961320  0.1114446791584740  0.3831228177681041
  0.8337423643277901  0.0004103337363475  0.3838538613464522
  0.8893120616961312  0.2778678125376501  0.3831228177681041
  0.8336565159802660  0.1668282429901353  0.3829312097620914
  0.8894598178979507  0.4443516134017784  0.3843857896751999
  0.8337423543277893  0.3333320005914473  0.3838538613464522
  0.8894904189569530  0.6111302820261670  0.3858554856717262
  0.8340561047045227  0.4998976238632409  0.3863097568827669
  0.8894904089569522  0.7783606069307893  0.3858554856717262
  0.8342267791825648  0.6671133995912797  0.3873129276899121
  0.8894597878979553  0.9451086644961677  0.3843857896751999
  0.8340560847045282  0.8341584908412898  0.3863097568827669
  0.6108922899088469  0.6327463692439537  0.5064645686311167
  0.6108922199088482  0.4781415906649045  0.5064645686311167
  0.6111620736241719  0.5555788918120825  0.6349450940721511
 
  0.00000000E+00  0.00000000E+00  0.00000000E+00
  0.00000000E+00  0.00000000E+00  0.00000000E+00
  0.00000000E+00  0.00000000E+00  0.00000000E+00
  0.00000000E+00  0.00000000E+00  0.00000000E+00
  0.00000000E+00  0.00000000E+00  0.00000000E+00
  0.00000000E+00  0.00000000E+00  0.00000000E+00
  0.00000000E+00  0.00000000E+00  0.00000000E+00
  0.00000000E+00  0.00000000E+00  0.00000000E+00
  0.00000000E+00  0.00000000E+00  0.00000000E+00
  0.00000000E+00  0.00000000E+00  0.00000000E+00
  0.00000000E+00  0.00000000E+00  0.00000000E+00
  0.00000000E+00  0.00000000E+00  0.00000000E+00
  0.00000000E+00  0.00000000E+00  0.00000000E+00
  0.00000000E+00  0.00000000E+00  0.00000000E+00
  0.00000000E+00  0.00000000E+00  0.00000000E+00
  0.00000000E+00  0.00000000E+00  0.00000000E+00
  0.00000000E+00  0.00000000E+00  0.00000000E+00
  0.00000000E+00  0.00000000E+00  0.00000000E+00
  0.00000000E+00  0.00000000E+00  0.00000000E+00
  0.00000000E+00  0.00000000E+00  0.00000000E+00
  0.00000000E+00  0.00000000E+00  0.00000000E+00
  0.00000000E+00  0.00000000E+00  0.00000000E+00
  0.00000000E+00  0.00000000E+00  0.00000000E+00
  0.00000000E+00  0.00000000E+00  0.00000000E+00
  0.00000000E+00  0.00000000E+00  0.00000000E+00
  0.00000000E+00  0.00000000E+00  0.00000000E+00
  0.00000000E+00  0.00000000E+00  0.00000000E+00
  0.00000000E+00  0.00000000E+00  0.00000000E+00
  0.00000000E+00  0.00000000E+00  0.00000000E+00
  0.00000000E+00  0.00000000E+00  0.00000000E+00
  0.00000000E+00  0.00000000E+00  0.00000000E+00
  0.00000000E+00  0.00000000E+00  0.00000000E+00
  0.00000000E+00  0.00000000E+00  0.00000000E+00
  0.00000000E+00  0.00000000E+00  0.00000000E+00
  0.00000000E+00  0.00000000E+00  0.00000000E+00
  0.00000000E+00  0.00000000E+00  0.00000000E+00
  0.00000000E+00  0.00000000E+00  0.00000000E+00
  0.00000000E+00  0.00000000E+00  0.00000000E+00
  0.00000000E+00  0.00000000E+00  0.00000000E+00
  0.00000000E+00  0.00000000E+00  0.00000000E+00
  0.00000000E+00  0.00000000E+00  0.00000000E+00
  0.00000000E+00  0.00000000E+00  0.00000000E+00
  0.00000000E+00  0.00000000E+00  0.00000000E+00
  0.00000000E+00  0.00000000E+00  0.00000000E+00
  0.00000000E+00  0.00000000E+00  0.00000000E+00
  0.00000000E+00  0.00000000E+00  0.00000000E+00
  0.00000000E+00  0.00000000E+00  0.00000000E+00
  0.00000000E+00  0.00000000E+00  0.00000000E+00
  0.00000000E+00  0.00000000E+00  0.00000000E+00
  0.00000000E+00  0.00000000E+00  0.00000000E+00
  0.00000000E+00  0.00000000E+00  0.00000000E+00
  0.00000000E+00  0.00000000E+00  0.00000000E+00
  0.00000000E+00  0.00000000E+00  0.00000000E+00
  0.00000000E+00  0.00000000E+00  0.00000000E+00
  0.00000000E+00  0.00000000E+00  0.00000000E+00
  0.00000000E+00  0.00000000E+00  0.00000000E+00
  0.00000000E+00  0.00000000E+00  0.00000000E+00
  0.00000000E+00  0.00000000E+00  0.00000000E+00
  0.00000000E+00  0.00000000E+00  0.00000000E+00
  0.00000000E+00  0.00000000E+00  0.00000000E+00
  0.00000000E+00  0.00000000E+00  0.00000000E+00
  0.00000000E+00  0.00000000E+00  0.00000000E+00
  0.00000000E+00  0.00000000E+00  0.00000000E+00
  0.00000000E+00  0.00000000E+00  0.00000000E+00
  0.00000000E+00  0.00000000E+00  0.00000000E+00
  0.00000000E+00  0.00000000E+00  0.00000000E+00
  0.00000000E+00  0.00000000E+00  0.00000000E+00
  0.00000000E+00  0.00000000E+00  0.00000000E+00
  0.00000000E+00  0.00000000E+00  0.00000000E+00
  0.00000000E+00  0.00000000E+00  0.00000000E+00
  0.00000000E+00  0.00000000E+00  0.00000000E+00
  0.00000000E+00  0.00000000E+00  0.00000000E+00
  0.00000000E+00  0.00000000E+00  0.00000000E+00
  0.00000000E+00  0.00000000E+00  0.00000000E+00
  0.00000000E+00  0.00000000E+00  0.00000000E+00
