Comment                                 
   1.00000000000000     
    17.0000000000000000    0.0000000000000000    0.0000000000000000
     0.0000000000000000   17.0000000000000000    0.0000000000000000
     0.0000000000000000    0.0000000000000000   17.5000000000000000
   Pd
     4
Direct
  0.4002900573582480  0.4772789305674010  0.4604723010843585
  0.4602812871132897  0.5248518771471282  0.5887036860712769
  0.4587314909069278  0.6177962162753161  0.4711627451660760
  0.5511326822685803  0.4963797995395609  0.4728760105354439
 
  0.00000000E+00  0.00000000E+00  0.00000000E+00
  0.00000000E+00  0.00000000E+00  0.00000000E+00
  0.00000000E+00  0.00000000E+00  0.00000000E+00
  0.00000000E+00  0.00000000E+00  0.00000000E+00
