C4                                      
   1.00000000000000     
    14.8063199999999995    0.0000000000000000    0.0000000000000000
    -7.4031599999999997   12.8226492600000004    0.0000000000000000
     0.0000000000000000    0.0000000000000000   18.0000000000000000
   C    Cu
    72     1
Direct
  0.0552036720246392  0.1107713572929825  0.3650288421812675
  0.9998171252822203  0.9997481715229881  0.3633178078860766
  0.0552036620246383  0.2777660747316588  0.3650288421812675
  0.9998139237162960  0.1665736168581518  0.3646689361359634
  0.0554653365298563  0.4444756777930081  0.3629919485842095
  0.9998171052822187  0.3334022537592318  0.3633178078860766
  0.0555384087312305  0.6111218809608872  0.3618521443411211
  0.9999627692844371  0.5000337724341506  0.3620950354263144
  0.0555383987312297  0.7777503277703488  0.3618521443411211
  0.9999833670350782  0.6666583585175374  0.3616720588717683
  0.0554653465298571  0.9443234087368566  0.3629919485842095
  0.9999627592844362  0.8332623468502902  0.3620950354263144
  0.2221014742089409  0.1107572350908228  0.3654427852297673
  0.1666082624516818  0.9998075466290075  0.3635613818953658
  0.2213797746299448  0.2773567623149660  0.3713472758598471
  0.1660097882132945  0.1656927322551809  0.3671618388489790
  0.2221014542089463  0.4446779791181257  0.3654427852297673
  0.1660097782133008  0.3336503459581266  0.3671618388489790
  0.2222292131776271  0.6112155479803150  0.3626395590999394
  0.1666082724516826  0.5001340758226718  0.3635613818953658
  0.2222237248042305  0.7777787574021175  0.3618409750855633
  0.1666443656562109  0.6666867294207393  0.3619933451802027
  0.2222292031776263  0.9443474551973097  0.3626395590999394
  0.1666443556562101  0.8332909762354745  0.3619933451802027
  0.3889473575483180  0.1109773141773331  0.3635613818953658
  0.3333264068223727  0.9998958420196828  0.3626395590999394
  0.3895458117867037  0.2774609640418717  0.3671618388489790
  0.3334541357910581  0.1664333308818797  0.3654427852297673
  0.3895458017867028  0.4454185777448245  0.3671618388489790
  0.3341758153700596  0.3337545476850323  0.3713472758598471
  0.3889473675483188  0.6113038433709903  0.3635613818953658
  0.3334541557910526  0.5003541549091892  0.3654427852297673
  0.3889112543437889  0.7778203937645287  0.3619933451802027
  0.3333264168223735  0.6667639148026865  0.3626395590999394
  0.3889112443437881  0.9444246405792569  0.3619933451802027
  0.3333318951957693  0.8333326125978857  0.3618409750855633
  0.5555928507155627  0.1110776175658543  0.3620950354263144
  0.5000172212687701  0.9999895090391107  0.3618521443411211
  0.5557384747177778  0.2777090562407665  0.3633178078860766
  0.5000902534701410  0.1666356322070044  0.3629919485842095
  0.5557416662837014  0.4445376931418537  0.3646689361359634
  0.5003519179753582  0.3333452352683395  0.3650288421812675
  0.5557385047177803  0.6113632184770097  0.3633178078860766
  0.5003519479753606  0.5003400327070295  0.3650288421812675
  0.5555928607155636  0.7778490231497130  0.3620950354263144
  0.5000902734701427  0.6667879612631396  0.3629919485842095
  0.5555722529649216  0.9444530114824587  0.3616720588717683
  0.5000172212687701  0.8333610422296545  0.3618521443411211
  0.7222368649930573  0.1111058160469014  0.3618113072987725
  0.6666799110049482  0.0000066205024822  0.3617206764426726
  0.7222378263398781  0.2777540237792593  0.3618894508471939
  0.6666941126739800  0.1666612429054553  0.3618481479242703
  0.7222548638996713  0.4444394324255185  0.3623441479880114
  0.6667791346122698  0.3333474506909440  0.3623887935652803
  0.7222548938996667  0.6111492214741503  0.3623441479880114
  0.6666997816671127  0.5000165808335595  0.3630407901826516
  0.7222378463398726  0.7778175825606226  0.3618894508471939
  0.6667791546122643  0.6667650139213208  0.3623887935652803
  0.7222368649930573  0.9444648189461589  0.3618113072987725
  0.6666941126739800  0.8333661897685332  0.3618481479242703
  0.8888558483328879  0.1110948091664454  0.3630407901826516
  0.8333007261003331  0.9999621685258475  0.3623441479880114
  0.8887764553877346  0.2777638593090543  0.3623887935652803
  0.8333007261003331  0.1666718775744869  0.3623441479880114
  0.8888614773260173  0.4444500670945501  0.3618481479242703
  0.8333177636601263  0.3333572862207390  0.3618894508471939
  0.8888757189950525  0.6111047694975156  0.3617206764426726
  0.8333187650069362  0.5000055739531035  0.3618113072987725
  0.8888614973260189  0.7777451802314701  0.3618481479242703
  0.8333187550069425  0.6666465510538373  0.3618113072987725
  0.8887764553877346  0.9443463560786753  0.3623887935652803
  0.8333177736601272  0.8332937874393807  0.3618894508471939
  0.2777779099999975  0.3055558100000013  0.4851635296559422

