Comment                                 
   1.00000000000000     
    17.0000000000000000    0.0000000000000000    0.0000000000000000
     0.0000000000000000   17.0000000000000000    0.0000000000000000
     0.0000000000000000    0.0000000000000000   17.0000000000000000
   Cu
     3
Direct
  0.4900508372938006  0.5752730747258568  0.5000000000000000
  0.6368610968855108  0.5833849142016874  0.5000000000000000
  0.5570439481736216  0.6912320110724508  0.5000000000000000
 
  0.00000000E+00  0.00000000E+00  0.00000000E+00
  0.00000000E+00  0.00000000E+00  0.00000000E+00
  0.00000000E+00  0.00000000E+00  0.00000000E+00
