C4                                      
   1.00000000000000     
    14.8063199999999995    0.0000000000000000    0.0000000000000000
    -7.4031599999999997   12.8226492600000004    0.0000000000000000
     0.0000000000000000    0.0000000000000000   17.0000000000000000
   C    Pt   Au
    72     2     1
Direct
  0.0534866811988763  0.1124084693912124  0.3824405503517667
  0.9980588086152338  0.0014261837541980  0.3820197280876982
  0.0533446824813240  0.2789728953167838  0.3829707869815877
  0.9978358516138286  0.1678656600742698  0.3824842673187732
  0.0535148570392394  0.4456687743460463  0.3827715576510471
  0.9979393268121157  0.3344810297472662  0.3826819193186495
  0.0534336539782743  0.6122857318483241  0.3829521892235945
  0.9981164611735380  0.5013137985702869  0.3830615035290137
  0.0534936910561044  0.7791790226934978  0.3824514873400844
  0.9978085579364233  0.6678871410509899  0.3833720385535599
  0.0536166914778704  0.9458756956606678  0.3819075658957658
  0.9982295579800677  0.8348138156869709  0.3823796334499647
  0.2199835783181499  0.1123178210931215  0.3835952843717649
  0.1645809758256007  0.0012995643194813  0.3822296261315614
  0.2199781267060388  0.2789629604921373  0.3859504493844028
  0.1645080611939775  0.1678160878433275  0.3837496302481327
  0.2197627546536935  0.4455571686349842  0.3851485007911535
  0.1644200278918504  0.3345138264011354  0.3846069140714476
  0.2198533768439788  0.6123730568341159  0.3837460826697736
  0.1643576032779492  0.5012400897569691  0.3835423815310648
  0.2200957075420575  0.7791105516738810  0.3825968409038367
  0.1644940044350420  0.6679010643009988  0.3827999425047679
  0.2200573323050463  0.9456683435283821  0.3822016393812078
  0.1645508112285157  0.8346650873006212  0.3821316096472884
  0.3866920147645558  0.1122308723484267  0.3840049086390493
  0.3311567830636761  0.0011561974572416  0.3826042411911956
  0.3865053315399933  0.2784730634849524  0.3904036006957767
  0.3311209681865321  0.1677627958172749  0.3855144677225013
  0.3847737041018746  0.4448351734190510  0.3949893925555941
  0.3306848274540926  0.3343371222920837  0.3907062019514811
  0.3862648960515855  0.6125855909615510  0.3896667486232417
  0.3304633718313923  0.5009228543749558  0.3893057786866621
  0.3866107232088325  0.7791263238413251  0.3847039435811368
  0.3309819783662462  0.6680561097270683  0.3856460441468030
  0.3866697382618725  0.9457540358138488  0.3825749282080224
  0.3310707306636829  0.8346322978847596  0.3830409851989813
  0.5534275157561552  0.1121872244500892  0.3829236995671579
  0.4978539953473415  0.0013309429211716  0.3826103755496391
  0.5530929477418312  0.2783208999658981  0.3882392308541114
  0.4977434594978902  0.1676046678300480  0.3842917470683815
  0.5531962243196276  0.4435408551054394  0.4071388169218366
  0.4970013954807442  0.3325861208231515  0.3943004744558607
  0.5539678840971121  0.6141548765672340  0.4025611896659598
  0.4957784420796330  0.5009615226192423  0.4075745475475472
  0.5533825633917147  0.7797786980657193  0.3883752987530968
  0.4971397055876565  0.6690714460279281  0.3936828772693985
  0.5534842927737458  0.9459159414028662  0.3833531055165054
  0.4977795158024705  0.8348709932738601  0.3851970789887247
  0.7200850519804476  0.1122990512917426  0.3826645342333848
  0.6644580171802659  0.0012412462104550  0.3831850826558920
  0.7202414083904927  0.2788016673426696  0.3847304426790785
  0.6645608572298443  0.1676646873408316  0.3831388570930230
  0.7212328669232875  0.4449395041684099  0.3925365534122918
  0.6647458824391848  0.3340806908214731  0.3885104322731934
  0.7216146958872329  0.6143515437079259  0.3927022712045343
  0.6663569827696847  0.5017610106632802  0.4017035816491941
  0.7207175206397025  0.7796518094971461  0.3872386972122683
  0.6665163574309076  0.6694194484554501  0.3930756163738565
  0.7200667925828554  0.9456305628609414  0.3838855116430153
  0.6646768119489437  0.8350086642744117  0.3865713097682999
  0.8868272235788979  0.1123520330711898  0.3823302101120589
  0.8313545958446298  0.0012959293049590  0.3827721413543301
  0.8868135066833887  0.2788659586302629  0.3827967026083527
  0.8312863676633953  0.1678960103889011  0.3825286916192283
  0.8870691666112052  0.4456015286673107  0.3844112954346954
  0.8313235357874831  0.3344321637599563  0.3840084052100323
  0.8871655034718984  0.6124823944895823  0.3857701342280322
  0.8319533088849340  0.5011867000858174  0.3873314405250810
  0.8871723618243692  0.7794699030486001  0.3839702111205341
  0.8318384989083683  0.6685441315328688  0.3866949099822463
  0.8869966991655929  0.9460351023465066  0.3826240555515739
  0.8316454376316358  0.8349790837346802  0.3841608174226181
  0.6241561675206100  0.4734985333460955  0.5249028869210335
  0.5258653338655179  0.5709083775182435  0.5256905314550551
  0.5842305262001517  0.5304780066454100  0.6609095635606437
 
  0.00000000E+00  0.00000000E+00  0.00000000E+00
  0.00000000E+00  0.00000000E+00  0.00000000E+00
  0.00000000E+00  0.00000000E+00  0.00000000E+00
  0.00000000E+00  0.00000000E+00  0.00000000E+00
  0.00000000E+00  0.00000000E+00  0.00000000E+00
  0.00000000E+00  0.00000000E+00  0.00000000E+00
  0.00000000E+00  0.00000000E+00  0.00000000E+00
  0.00000000E+00  0.00000000E+00  0.00000000E+00
  0.00000000E+00  0.00000000E+00  0.00000000E+00
  0.00000000E+00  0.00000000E+00  0.00000000E+00
  0.00000000E+00  0.00000000E+00  0.00000000E+00
  0.00000000E+00  0.00000000E+00  0.00000000E+00
  0.00000000E+00  0.00000000E+00  0.00000000E+00
  0.00000000E+00  0.00000000E+00  0.00000000E+00
  0.00000000E+00  0.00000000E+00  0.00000000E+00
  0.00000000E+00  0.00000000E+00  0.00000000E+00
  0.00000000E+00  0.00000000E+00  0.00000000E+00
  0.00000000E+00  0.00000000E+00  0.00000000E+00
  0.00000000E+00  0.00000000E+00  0.00000000E+00
  0.00000000E+00  0.00000000E+00  0.00000000E+00
  0.00000000E+00  0.00000000E+00  0.00000000E+00
  0.00000000E+00  0.00000000E+00  0.00000000E+00
  0.00000000E+00  0.00000000E+00  0.00000000E+00
  0.00000000E+00  0.00000000E+00  0.00000000E+00
  0.00000000E+00  0.00000000E+00  0.00000000E+00
  0.00000000E+00  0.00000000E+00  0.00000000E+00
  0.00000000E+00  0.00000000E+00  0.00000000E+00
  0.00000000E+00  0.00000000E+00  0.00000000E+00
  0.00000000E+00  0.00000000E+00  0.00000000E+00
  0.00000000E+00  0.00000000E+00  0.00000000E+00
  0.00000000E+00  0.00000000E+00  0.00000000E+00
  0.00000000E+00  0.00000000E+00  0.00000000E+00
  0.00000000E+00  0.00000000E+00  0.00000000E+00
  0.00000000E+00  0.00000000E+00  0.00000000E+00
  0.00000000E+00  0.00000000E+00  0.00000000E+00
  0.00000000E+00  0.00000000E+00  0.00000000E+00
  0.00000000E+00  0.00000000E+00  0.00000000E+00
  0.00000000E+00  0.00000000E+00  0.00000000E+00
  0.00000000E+00  0.00000000E+00  0.00000000E+00
  0.00000000E+00  0.00000000E+00  0.00000000E+00
  0.00000000E+00  0.00000000E+00  0.00000000E+00
  0.00000000E+00  0.00000000E+00  0.00000000E+00
  0.00000000E+00  0.00000000E+00  0.00000000E+00
  0.00000000E+00  0.00000000E+00  0.00000000E+00
  0.00000000E+00  0.00000000E+00  0.00000000E+00
  0.00000000E+00  0.00000000E+00  0.00000000E+00
  0.00000000E+00  0.00000000E+00  0.00000000E+00
  0.00000000E+00  0.00000000E+00  0.00000000E+00
  0.00000000E+00  0.00000000E+00  0.00000000E+00
  0.00000000E+00  0.00000000E+00  0.00000000E+00
  0.00000000E+00  0.00000000E+00  0.00000000E+00
  0.00000000E+00  0.00000000E+00  0.00000000E+00
  0.00000000E+00  0.00000000E+00  0.00000000E+00
  0.00000000E+00  0.00000000E+00  0.00000000E+00
  0.00000000E+00  0.00000000E+00  0.00000000E+00
  0.00000000E+00  0.00000000E+00  0.00000000E+00
  0.00000000E+00  0.00000000E+00  0.00000000E+00
  0.00000000E+00  0.00000000E+00  0.00000000E+00
  0.00000000E+00  0.00000000E+00  0.00000000E+00
  0.00000000E+00  0.00000000E+00  0.00000000E+00
  0.00000000E+00  0.00000000E+00  0.00000000E+00
  0.00000000E+00  0.00000000E+00  0.00000000E+00
  0.00000000E+00  0.00000000E+00  0.00000000E+00
  0.00000000E+00  0.00000000E+00  0.00000000E+00
  0.00000000E+00  0.00000000E+00  0.00000000E+00
  0.00000000E+00  0.00000000E+00  0.00000000E+00
  0.00000000E+00  0.00000000E+00  0.00000000E+00
  0.00000000E+00  0.00000000E+00  0.00000000E+00
  0.00000000E+00  0.00000000E+00  0.00000000E+00
  0.00000000E+00  0.00000000E+00  0.00000000E+00
  0.00000000E+00  0.00000000E+00  0.00000000E+00
  0.00000000E+00  0.00000000E+00  0.00000000E+00
  0.00000000E+00  0.00000000E+00  0.00000000E+00
  0.00000000E+00  0.00000000E+00  0.00000000E+00
  0.00000000E+00  0.00000000E+00  0.00000000E+00
