C4                                      
   1.00000000000000     
    14.8063199999999995    0.0000000000000000    0.0000000000000000
    -7.4031599999999997   12.8226492600000004    0.0000000000000000
     0.0000000000000000    0.0000000000000000   18.0000000000000000
   C    Ni
    72     4
Direct
  0.0585958243123912  0.1108673223059427  0.3639965978437161
  0.0030983418267141  0.9998835475994454  0.3644814858064436
  0.0577933122805945  0.2773423855333519  0.3637479560239001
  0.0029130625119080  0.1665119254813519  0.3640770871852226
  0.0585639087339445  0.4446038048620196  0.3644590037431215
  0.0029066691575252  0.3332839310459974  0.3643718001305558
  0.0586973953420795  0.6111773877036768  0.3650804345314711
  0.0030517060681845  0.5001035015764472  0.3649744310857841
  0.0587252341925861  0.7778015280673216  0.3650731562998786
  0.0031555037006967  0.6667326390918547  0.3651251719251789
  0.0587412866435386  0.9444254056974231  0.3646278933888212
  0.0031805660656516  0.8333178870643678  0.3648948493394784
  0.2253353362671717  0.1108552103373270  0.3634934697354311
  0.1698252247728647  0.9998604986758437  0.3643307166713186
  0.2251053330034409  0.2770870070834874  0.3621573444676400
  0.1694292412587117  0.1657439030065930  0.3633808288306994
  0.2250024154746271  0.4448559302817401  0.3625359909843624
  0.1691010487875317  0.3330195355855139  0.3624736131165989
  0.2253239851381466  0.6113416163204946  0.3643301995599941
  0.1693727045092359  0.5005324223600809  0.3639078634342354
  0.2254319502499555  0.7778976031625007  0.3650298149112885
  0.1698072048400974  0.6668033607771804  0.3649115055019365
  0.2254345206098307  0.9443893428612640  0.3646685505363081
  0.1698775899434821  0.8333718310218501  0.3650397854085128
  0.3921363470006440  0.1110100578141839  0.3638539364958078
  0.3365233975232513  0.9999422794141495  0.3645715039121029
  0.3924941780673876  0.2772454176657533  0.3617573666387628
  0.3366445808815186  0.1665087890202273  0.3629086037269573
  0.3929036546671014  0.4448695296253504  0.3610221972959238
  0.3369526327429284  0.3329764483688393  0.3609949931934651
  0.3925966122493136  0.6121072837896833  0.3633995418269436
  0.3369371018756198  0.5007645972556034  0.3622093496296372
  0.3921460172773692  0.7779792074147522  0.3646001129342622
  0.3366529325472669  0.6669835282950345  0.3641411989750054
  0.3920765720377943  0.9444666872135201  0.3648738810456749
  0.3365204849906078  0.8334417217127665  0.3649211096506448
  0.5587694211860068  0.1110986953043209  0.3646166349429336
  0.5032181873462562  0.0000490352642544  0.3648346303563486
  0.5588438157687108  0.2776980032594878  0.3634587145752022
  0.5032133873537887  0.1666267861754349  0.3639709250432688
  0.5590510565724500  0.4446577841143409  0.3623819745533865
  0.5033221471798370  0.3332103628089271  0.3624405852834656
  0.5590611240891548  0.6113337256539140  0.3627667467528539
  0.5041870389656964  0.5005953737341216  0.3617566346393559
  0.5588847634058993  0.7779906388865285  0.3641271286962038
  0.5033937018890455  0.6669818123374398  0.3633674952207997
  0.5588004650452021  0.9445580416824129  0.3648322725791218
  0.5032492248425342  0.8334458015748822  0.3645714858642251
  0.7253502383611092  0.1111216500000296  0.3649097692144920
  0.6698641252562112  0.0000607691883161  0.3648468253742152
  0.7253937394769636  0.2777950310095676  0.3647764811413339
  0.6698295788622488  0.1666610264982324  0.3648192133487029
  0.7254855392631114  0.4444828455002821  0.3641676501429245
  0.6699432386807374  0.3333743881930786  0.3641789895350769
  0.7255070944307320  0.6112111595266185  0.3638179751192112
  0.6700645734731268  0.5001525303130450  0.3634021639124825
  0.7255030642434690  0.7778952694362644  0.3642184710364944
  0.6700472802877613  0.6668246959516893  0.3635971414681123
  0.7254325510733040  0.9444853358681158  0.3646953727198508
  0.6699738453539297  0.8334634778695076  0.3643490473531656
  0.8919204653676829  0.1110370625088848  0.3645861268356043
  0.8364525063237664  0.9999473482325243  0.3646798689454513
  0.8918863188135475  0.2777545655529607  0.3648131226044313
  0.8364468815628499  0.1666690747286665  0.3648042886874663
  0.8919635005575728  0.4444638769430043  0.3650143324368074
  0.8364228721376818  0.3333772722329158  0.3649665908361044
  0.8920928060466977  0.6111849058619754  0.3648766389531417
  0.8365132573401510  0.5000493201189613  0.3647960984463765
  0.8921011995086161  0.7778030285880106  0.3647089023733798
  0.8365941232554803  0.6667468189128058  0.3645403310720141
  0.8919954871261595  0.9444088892160849  0.3646512664269324
  0.8365311229082906  0.8333751907074927  0.3645889159286781
  0.2819386054447932  0.3891630810214934  0.4569926697020250
  0.2189483470522049  0.3917266112375515  0.5680239669425475
  0.3685540998990717  0.3881087646883827  0.5642203300422608
  0.5083276966964902  0.3826115642045451  0.5429124551064248
 
  0.00000000E+00  0.00000000E+00  0.00000000E+00
  0.00000000E+00  0.00000000E+00  0.00000000E+00
  0.00000000E+00  0.00000000E+00  0.00000000E+00
  0.00000000E+00  0.00000000E+00  0.00000000E+00
  0.00000000E+00  0.00000000E+00  0.00000000E+00
  0.00000000E+00  0.00000000E+00  0.00000000E+00
  0.00000000E+00  0.00000000E+00  0.00000000E+00
  0.00000000E+00  0.00000000E+00  0.00000000E+00
  0.00000000E+00  0.00000000E+00  0.00000000E+00
  0.00000000E+00  0.00000000E+00  0.00000000E+00
  0.00000000E+00  0.00000000E+00  0.00000000E+00
  0.00000000E+00  0.00000000E+00  0.00000000E+00
  0.00000000E+00  0.00000000E+00  0.00000000E+00
  0.00000000E+00  0.00000000E+00  0.00000000E+00
  0.00000000E+00  0.00000000E+00  0.00000000E+00
  0.00000000E+00  0.00000000E+00  0.00000000E+00
  0.00000000E+00  0.00000000E+00  0.00000000E+00
  0.00000000E+00  0.00000000E+00  0.00000000E+00
  0.00000000E+00  0.00000000E+00  0.00000000E+00
  0.00000000E+00  0.00000000E+00  0.00000000E+00
  0.00000000E+00  0.00000000E+00  0.00000000E+00
  0.00000000E+00  0.00000000E+00  0.00000000E+00
  0.00000000E+00  0.00000000E+00  0.00000000E+00
  0.00000000E+00  0.00000000E+00  0.00000000E+00
  0.00000000E+00  0.00000000E+00  0.00000000E+00
  0.00000000E+00  0.00000000E+00  0.00000000E+00
  0.00000000E+00  0.00000000E+00  0.00000000E+00
  0.00000000E+00  0.00000000E+00  0.00000000E+00
  0.00000000E+00  0.00000000E+00  0.00000000E+00
  0.00000000E+00  0.00000000E+00  0.00000000E+00
  0.00000000E+00  0.00000000E+00  0.00000000E+00
  0.00000000E+00  0.00000000E+00  0.00000000E+00
  0.00000000E+00  0.00000000E+00  0.00000000E+00
  0.00000000E+00  0.00000000E+00  0.00000000E+00
  0.00000000E+00  0.00000000E+00  0.00000000E+00
  0.00000000E+00  0.00000000E+00  0.00000000E+00
  0.00000000E+00  0.00000000E+00  0.00000000E+00
  0.00000000E+00  0.00000000E+00  0.00000000E+00
  0.00000000E+00  0.00000000E+00  0.00000000E+00
  0.00000000E+00  0.00000000E+00  0.00000000E+00
  0.00000000E+00  0.00000000E+00  0.00000000E+00
  0.00000000E+00  0.00000000E+00  0.00000000E+00
  0.00000000E+00  0.00000000E+00  0.00000000E+00
  0.00000000E+00  0.00000000E+00  0.00000000E+00
  0.00000000E+00  0.00000000E+00  0.00000000E+00
  0.00000000E+00  0.00000000E+00  0.00000000E+00
  0.00000000E+00  0.00000000E+00  0.00000000E+00
  0.00000000E+00  0.00000000E+00  0.00000000E+00
  0.00000000E+00  0.00000000E+00  0.00000000E+00
  0.00000000E+00  0.00000000E+00  0.00000000E+00
  0.00000000E+00  0.00000000E+00  0.00000000E+00
  0.00000000E+00  0.00000000E+00  0.00000000E+00
  0.00000000E+00  0.00000000E+00  0.00000000E+00
  0.00000000E+00  0.00000000E+00  0.00000000E+00
  0.00000000E+00  0.00000000E+00  0.00000000E+00
  0.00000000E+00  0.00000000E+00  0.00000000E+00
  0.00000000E+00  0.00000000E+00  0.00000000E+00
  0.00000000E+00  0.00000000E+00  0.00000000E+00
  0.00000000E+00  0.00000000E+00  0.00000000E+00
  0.00000000E+00  0.00000000E+00  0.00000000E+00
  0.00000000E+00  0.00000000E+00  0.00000000E+00
  0.00000000E+00  0.00000000E+00  0.00000000E+00
  0.00000000E+00  0.00000000E+00  0.00000000E+00
  0.00000000E+00  0.00000000E+00  0.00000000E+00
  0.00000000E+00  0.00000000E+00  0.00000000E+00
  0.00000000E+00  0.00000000E+00  0.00000000E+00
  0.00000000E+00  0.00000000E+00  0.00000000E+00
  0.00000000E+00  0.00000000E+00  0.00000000E+00
  0.00000000E+00  0.00000000E+00  0.00000000E+00
  0.00000000E+00  0.00000000E+00  0.00000000E+00
  0.00000000E+00  0.00000000E+00  0.00000000E+00
  0.00000000E+00  0.00000000E+00  0.00000000E+00
  0.00000000E+00  0.00000000E+00  0.00000000E+00
  0.00000000E+00  0.00000000E+00  0.00000000E+00
  0.00000000E+00  0.00000000E+00  0.00000000E+00
  0.00000000E+00  0.00000000E+00  0.00000000E+00
