POSCAR                                  
   1.00000000000000     
    19.0000000000000000    0.0000000000000000    0.0000000000000000
     0.0000000000000000   19.0000000000000000    0.0000000000000000
     0.0000000000000000    0.0000000000000000   19.0000000000000000
   Pd
     3
Direct
  0.4405428283085442  0.4680133057961058  0.5021488885813952
  0.4888703303839677  0.5898239949008683  0.5065022482915893
  0.5691746213074964  0.4877817093030288  0.4987121731270250
 
  0.00000000E+00  0.00000000E+00  0.00000000E+00
  0.00000000E+00  0.00000000E+00  0.00000000E+00
  0.00000000E+00  0.00000000E+00  0.00000000E+00
