C4                                      
   1.00000000000000     
    14.8063199999999995    0.0000000000000000    0.0000000000000000
    -7.4031599999999997   12.8226492600000004    0.0000000000000000
     0.0000000000000000    0.0000000000000000   18.0000000000000000
   C    Ag   Au
    72     1     1
Direct
  0.0553401263942419  0.1109408573740538  0.3644909929696283
  0.9998961840043421  0.9998841665905047  0.3637668115575181
  0.0553225648946736  0.2777153136767012  0.3645215916138511
  0.9998918776339991  0.1666014846012303  0.3642981907267497
  0.0554981649341215  0.4444324432332465  0.3636152280395919
  0.9998895250941331  0.3333352434254522  0.3637566994852577
  0.0555461709298086  0.6111044420840912  0.3631735090233121
  0.9999733714108459  0.4999884766229528  0.3632428983443674
  0.0555568361284529  0.7777657045181741  0.3632098020602470
  0.0000052991862134  0.6666621018635084  0.3631458838348323
  0.0555040232120874  0.9443934586494933  0.3636703459981590
  0.9999836212996485  0.8333108888427105  0.3633004271237610
  0.2221254980954583  0.1109242199347307  0.3651235569222919
  0.1666168824639556  0.9999061097591593  0.3640541367832100
  0.2214497290845827  0.2773955341838530  0.3674354090625087
  0.1663310421426658  0.1662853603940988  0.3656640024903410
  0.2221202055619074  0.4445393352854197  0.3650959446484165
  0.1663163501242266  0.3333805505082239  0.3656780241269146
  0.2222277428727040  0.6111635317438413  0.3636097339469799
  0.1666140891866164  0.5000482274285716  0.3640123861027718
  0.2222427808608174  0.7777840664580964  0.3631518443857900
  0.1666644165835791  0.6666831014321986  0.3632232781135443
  0.2222220157901518  0.9443935099726843  0.3636618289564240
  0.1666692610716325  0.8333084824869275  0.3632490596369777
  0.3889504642665074  0.1109330469790706  0.3645662081130681
  0.3333208207446745  0.9998793635425827  0.3637997238735338
  0.3892745645613758  0.2773829249932831  0.3674531498245059
  0.3332855757854318  0.1662673047292600  0.3657104609415640
  0.3892675611012635  0.4452060111403142  0.3674201994810531
  0.3333331246880036  0.3333277650775059  0.3694242727165502
  0.3889400107852623  0.6113237499169983  0.3644937738493823
  0.3332804330765313  0.5003366434714636  0.3656583233935251
  0.3888946181686919  0.7778309794625002  0.3634079623581101
  0.3333298774052835  0.6667683495813463  0.3637401962569982
  0.3888894673784193  0.9443894765033889  0.3634414054856805
  0.3333251962169754  0.8333284817214235  0.3632389098612165
  0.5555901267646988  0.1110805498867080  0.3637170983468963
  0.4999926680186348  0.9999745374828564  0.3634935565711004
  0.5557319907626095  0.2777202896371165  0.3645016302640514
  0.5000655490443080  0.1666107493315039  0.3643474734643846
  0.5557380311649212  0.4445247144151807  0.3651027581965351
  0.5003881714658363  0.3333698878245244  0.3656685029941826
  0.5557179340121294  0.6113225176811170  0.3645720563972858
  0.5003844503902144  0.5003271364616069  0.3656907384626962
  0.5555739986511128  0.7778161805519446  0.3637019580695338
  0.5000452671845537  0.6667572516657643  0.3643311801431253
  0.5555641365412356  0.9444504151136641  0.3634045229209875
  0.5000008350612575  0.8333522195939267  0.3634802041515357
  0.7222242501780869  0.1111024945940642  0.3633618737773432
  0.6666673848205349  0.0000036560912449  0.3633969360301492
  0.7222747265370870  0.2777810361134243  0.3633895325439838
  0.6666945634474715  0.1666700409063822  0.3634572360812385
  0.7222682946272059  0.4444566908435377  0.3636469415869712
  0.6667843055875124  0.3333545663276638  0.3637418734164228
  0.7222663306938841  0.6111648845027560  0.3637038440720843
  0.6667537468917999  0.5000502709918209  0.3640622432143132
  0.7222734933599781  0.7778367409214297  0.3635121142087030
  0.6667755019423964  0.6667740530137607  0.3638643001711515
  0.7222080830805311  0.9444467936670549  0.3633988228005762
  0.6666815316703207  0.8333512389791551  0.3635124728824621
  0.8888325307111060  0.1110733215184396  0.3636655011902405
  0.8333032536598992  0.9999701885457668  0.3634737060033970
  0.8888302324932340  0.2777651311926519  0.3634024668277647
  0.8333132970435599  0.1666602996688766  0.3634413321310603
  0.8888745184101694  0.4444271746133950  0.3631833447257264
  0.8333411286566914  0.3333416681991750  0.3632398284531533
  0.8889016689919487  0.6111270383718406  0.3632027967670126
  0.8333512900797473  0.5000100016524485  0.3632711709036798
  0.8888816033982323  0.7777920395860392  0.3632488906851634
  0.8333518779267450  0.6666927405938594  0.3632918474559474
  0.8888321782935549  0.9443928990489638  0.3634576965003404
  0.8333396840623379  0.8333320141040303  0.3633404605484643
  0.3331336488748065  0.3334590571962366  0.5025507303532990
  0.3326169723603698  0.3334128609209870  0.6430975045783427
 
  0.00000000E+00  0.00000000E+00  0.00000000E+00
  0.00000000E+00  0.00000000E+00  0.00000000E+00
  0.00000000E+00  0.00000000E+00  0.00000000E+00
  0.00000000E+00  0.00000000E+00  0.00000000E+00
  0.00000000E+00  0.00000000E+00  0.00000000E+00
  0.00000000E+00  0.00000000E+00  0.00000000E+00
  0.00000000E+00  0.00000000E+00  0.00000000E+00
  0.00000000E+00  0.00000000E+00  0.00000000E+00
  0.00000000E+00  0.00000000E+00  0.00000000E+00
  0.00000000E+00  0.00000000E+00  0.00000000E+00
  0.00000000E+00  0.00000000E+00  0.00000000E+00
  0.00000000E+00  0.00000000E+00  0.00000000E+00
  0.00000000E+00  0.00000000E+00  0.00000000E+00
  0.00000000E+00  0.00000000E+00  0.00000000E+00
  0.00000000E+00  0.00000000E+00  0.00000000E+00
  0.00000000E+00  0.00000000E+00  0.00000000E+00
  0.00000000E+00  0.00000000E+00  0.00000000E+00
  0.00000000E+00  0.00000000E+00  0.00000000E+00
  0.00000000E+00  0.00000000E+00  0.00000000E+00
  0.00000000E+00  0.00000000E+00  0.00000000E+00
  0.00000000E+00  0.00000000E+00  0.00000000E+00
  0.00000000E+00  0.00000000E+00  0.00000000E+00
  0.00000000E+00  0.00000000E+00  0.00000000E+00
  0.00000000E+00  0.00000000E+00  0.00000000E+00
  0.00000000E+00  0.00000000E+00  0.00000000E+00
  0.00000000E+00  0.00000000E+00  0.00000000E+00
  0.00000000E+00  0.00000000E+00  0.00000000E+00
  0.00000000E+00  0.00000000E+00  0.00000000E+00
  0.00000000E+00  0.00000000E+00  0.00000000E+00
  0.00000000E+00  0.00000000E+00  0.00000000E+00
  0.00000000E+00  0.00000000E+00  0.00000000E+00
  0.00000000E+00  0.00000000E+00  0.00000000E+00
  0.00000000E+00  0.00000000E+00  0.00000000E+00
  0.00000000E+00  0.00000000E+00  0.00000000E+00
  0.00000000E+00  0.00000000E+00  0.00000000E+00
  0.00000000E+00  0.00000000E+00  0.00000000E+00
  0.00000000E+00  0.00000000E+00  0.00000000E+00
  0.00000000E+00  0.00000000E+00  0.00000000E+00
  0.00000000E+00  0.00000000E+00  0.00000000E+00
  0.00000000E+00  0.00000000E+00  0.00000000E+00
  0.00000000E+00  0.00000000E+00  0.00000000E+00
  0.00000000E+00  0.00000000E+00  0.00000000E+00
  0.00000000E+00  0.00000000E+00  0.00000000E+00
  0.00000000E+00  0.00000000E+00  0.00000000E+00
  0.00000000E+00  0.00000000E+00  0.00000000E+00
  0.00000000E+00  0.00000000E+00  0.00000000E+00
  0.00000000E+00  0.00000000E+00  0.00000000E+00
  0.00000000E+00  0.00000000E+00  0.00000000E+00
  0.00000000E+00  0.00000000E+00  0.00000000E+00
  0.00000000E+00  0.00000000E+00  0.00000000E+00
  0.00000000E+00  0.00000000E+00  0.00000000E+00
  0.00000000E+00  0.00000000E+00  0.00000000E+00
  0.00000000E+00  0.00000000E+00  0.00000000E+00
  0.00000000E+00  0.00000000E+00  0.00000000E+00
  0.00000000E+00  0.00000000E+00  0.00000000E+00
  0.00000000E+00  0.00000000E+00  0.00000000E+00
  0.00000000E+00  0.00000000E+00  0.00000000E+00
  0.00000000E+00  0.00000000E+00  0.00000000E+00
  0.00000000E+00  0.00000000E+00  0.00000000E+00
  0.00000000E+00  0.00000000E+00  0.00000000E+00
  0.00000000E+00  0.00000000E+00  0.00000000E+00
  0.00000000E+00  0.00000000E+00  0.00000000E+00
  0.00000000E+00  0.00000000E+00  0.00000000E+00
  0.00000000E+00  0.00000000E+00  0.00000000E+00
  0.00000000E+00  0.00000000E+00  0.00000000E+00
  0.00000000E+00  0.00000000E+00  0.00000000E+00
  0.00000000E+00  0.00000000E+00  0.00000000E+00
  0.00000000E+00  0.00000000E+00  0.00000000E+00
  0.00000000E+00  0.00000000E+00  0.00000000E+00
  0.00000000E+00  0.00000000E+00  0.00000000E+00
  0.00000000E+00  0.00000000E+00  0.00000000E+00
  0.00000000E+00  0.00000000E+00  0.00000000E+00
  0.00000000E+00  0.00000000E+00  0.00000000E+00
  0.00000000E+00  0.00000000E+00  0.00000000E+00
