C4                                      
   1.00000000000000     
    14.8063199999999995    0.0000000000000000    0.0000000000000000
    -7.4031599999999997   12.8226492600000004    0.0000000000000000
     0.0000000000000000    0.0000000000000000   18.0000000000000000
   C    Ni
    72     1
Direct
  0.0551364302136435  0.1106212799843576  0.3626845772352709
  0.9997183950553605  0.9996529544893917  0.3626994080694814
  0.0542417429526481  0.2771215107215781  0.3626408104265053
  0.9995080946050408  0.1662460410380007  0.3626567420168882
  0.0551355843196362  0.4445173646567326  0.3626829324856899
  0.9995084285088751  0.3332658647096451  0.3626557457233162
  0.0554437754949362  0.6112310949831254  0.3626756614220454
  0.9997194333015855  0.5000704666652211  0.3626979355765556
  0.0555688482877628  0.7777865224603175  0.3626417526699584
  0.9999788307088551  0.6666915501145851  0.3626322797724058
  0.0554447473455397  0.9442166817362221  0.3626754076866234
  0.9999790785177396  0.8332924626863729  0.3626330569455760
  0.2221529121149857  0.1106212035014451  0.3626911522013074
  0.1666045648778152  0.9996567548820821  0.3626864225069824
  0.2216267073901861  0.2765819182263698  0.3617691345371341
  0.1660092100470507  0.1653528458657476  0.3626681070378623
  0.2216255388821651  0.4450455812227574  0.3617650174453857
  0.1654664583630279  0.3327340406228814  0.3617530739991324
  0.2221516123452290  0.6115323872797163  0.3626908828763149
  0.1660090804693084  0.5006589917504769  0.3626663830514758
  0.2222096493817602  0.7778923780289162  0.3626661683364105
  0.1666058646633033  0.6669508296523290  0.3626881280862904
  0.2222099841078560  0.9443204570249364  0.3626655503720357
  0.1665837812925659  0.8332932104186455  0.3626783067977470
  0.3889592065401288  0.1108298918603481  0.3627116434693107
  0.3333557684941226  0.9998931013264070  0.3626630717558541
  0.3895469828297493  0.2771283805233509  0.3627054248528125
  0.3334013308988304  0.1662487331099101  0.3627133607751247
  0.3900788224495244  0.4450393152822301  0.3617985081512884
  0.3339251342113982  0.3327344842607687  0.3617909628707210
  0.3895457906585165  0.6124193413694456  0.3627019719407940
  0.3339248652693314  0.5011906667999781  0.3617863459225106
  0.3889580126130312  0.7781295389268976  0.3627125788118519
  0.3333993383495013  0.6671529709244624  0.3627115413716595
  0.3889859836827299  0.9444940250153095  0.3626557924760476
  0.3333562981902816  0.8334651305980501  0.3626632885188386
  0.5555846260371382  0.1110946511385862  0.3626279944436703
  0.4999861413676925  0.9999952413721616  0.3626134334191775
  0.5558389977631109  0.2777165520464564  0.3627140143641014
  0.5001154826900489  0.1665568502565478  0.3626920314158184
  0.5560372836403573  0.4445099028457875  0.3627161325814612
  0.5004188467871131  0.3332655757348988  0.3627269844517329
  0.5560369531494445  0.6115284367559184  0.3627167601363581
  0.5013011768776465  0.5006512318588037  0.3626937009972053
  0.5558379989242468  0.7781244254052240  0.3627140532967488
  0.5004182720188979  0.6671548355937063  0.3627260359384366
  0.5555833423572949  0.9444925294916331  0.3626284807569675
  0.5001155802345707  0.8335610945490544  0.3626933633818510
  0.7221808062328705  0.1110913362798769  0.3626385042633586
  0.6666745012317534  0.9999967704817507  0.3626528801578104
  0.7221805417110900  0.2776916207518809  0.3626988508927482
  0.6666753051488925  0.1666815717657357  0.3626521821219058
  0.7223471863070188  0.4444629190383935  0.3626733911387134
  0.6667796274173980  0.3333214560389948  0.3626777694037031
  0.7224440196748816  0.6112235233242060  0.3626967638092182
  0.6670124101773993  0.5000653599466887  0.3627087772342890
  0.7223463137607524  0.7778866167598082  0.3626752738127408
  0.6670120617371396  0.6669490623210237  0.3627116220383826
  0.7221790677106483  0.9444912761775157  0.3626996184681133
  0.6667786785032845  0.8334594404491753  0.3626780333311572
  0.8885458467109117  0.1108320379906829  0.3626624974669781
  0.8332060096345018  0.9998916074084576  0.3626826419773650
  0.8885449126835994  0.2777149539604622  0.3626627906976978
  0.8331034807428779  0.1665534341131050  0.3626458807369985
  0.8887822079659315  0.4444688033439022  0.3626781241221977
  0.8332082027885122  0.3333202953505463  0.3626821511468634
  0.8888846003707513  0.6111027004810836  0.3626411567145809
  0.8333785016017217  0.5000952657791657  0.3626780958451477
  0.8888856493811730  0.7777861416777583  0.3626425786164731
  0.8333780830052575  0.6666911190969884  0.3626400487023460
  0.8887821520517747  0.9443163240543768  0.3626793749178105
  0.8333775077157526  0.8332862516411623  0.3626790917837326
  0.2775633164525644  0.3887868619994919  0.4477321072208369

