Comment                                 
   1.00000000000000     
    17.0000000000000000    0.0000000000000000    0.0000000000000000
     0.0000000000000000   17.0000000000000000    0.0000000000000000
     0.0000000000000000    0.0000000000000000   17.5000000000000000
   Ni
     4
Selective dynamics
Direct
  0.4071217478175697  0.4826305889339650  0.4686977142857174   T   T   F
  0.4579323529411781  0.5228041176470555  0.5774044501034723   F   F   T
  0.4635534494021414  0.6068794940277513  0.4727805714285722   T   T   F
  0.5418417018021984  0.5040038459004919  0.4743165714285738   T   T   F
 
  0.00000000E+00  0.00000000E+00  0.00000000E+00
  0.00000000E+00  0.00000000E+00  0.00000000E+00
  0.00000000E+00  0.00000000E+00  0.00000000E+00
  0.00000000E+00  0.00000000E+00  0.00000000E+00
