POSCAR                                  
   1.00000000000000     
    20.0000000000000000    0.0000000000000000    0.0000000000000000
     0.0000000000000000   20.0000000000000000    0.0000000000000000
     0.0000000000000000    0.0000000000000000   20.0000000000000000
   Pd   Au
     3     1
Direct
  0.3460079221227604  0.3196822730491948  0.5696797077358251
  0.3668863760391480  0.3468051575404599  0.4445002726197241
  0.4651129661586494  0.3069225532068510  0.5193170427106846
  0.4153760356794343  0.4302902162034972  0.5380163269337698
