C4                                      
   1.00000000000000     
    14.8063199999999995    0.0000000000000000    0.0000000000000000
    -7.4031599999999997   12.8226492600000004    0.0000000000000000
     0.0000000000000000    0.0000000000000000   18.0000000000000000
   C    Cu   Au
    72     1     1
Direct
  0.0557855042797826  0.1119589742492266  0.3607703870604411
  0.0004044442161515  0.0009601310401237  0.3607195458603627
  0.0557518919123368  0.2786802341187382  0.3601298494086720
  0.0003388074112323  0.1676263740780115  0.3603819945669926
  0.0558574760557065  0.4454521084159992  0.3599348041783159
  0.0003198811431560  0.3343527555430370  0.3597953131342422
  0.0559935650402679  0.6121499457101933  0.3601785026899904
  0.0004406661574166  0.5010530733620868  0.3599385227146641
  0.0560086645716922  0.7788116364391158  0.3604885797029382
  0.0005032734742016  0.6677810017068708  0.3601899898642529
  0.0559987383324625  0.9454885255368950  0.3607885362393617
  0.0005052801040080  0.8344367813131655  0.3606243824213209
  0.2226558476138223  0.1120489266703686  0.3614127944586940
  0.1671873570215183  0.0011459711683557  0.3609431336016371
  0.2216450243376897  0.2782426931427437  0.3625529922938711
  0.1668017081732742  0.1674360739888741  0.3615196543132342
  0.2223986059875145  0.4456339811873704  0.3609996669717930
  0.1667448696205014  0.3342844609001929  0.3609172591664489
  0.2225837788138563  0.6122322866700785  0.3606726650230385
  0.1669647112436792  0.5011797812263055  0.3603589530063829
  0.2226436291346943  0.7788736796104985  0.3607047424996495
  0.1670581882164797  0.6677955156301039  0.3605025514292137
  0.2227310922775203  0.9455083642102480  0.3608144649782759
  0.1671524410492395  0.8344608809724505  0.3606625031968917
  0.3894617944169951  0.1120009846165360  0.3606652071235743
  0.3338099718355352  0.0009935965676675  0.3607358420788387
  0.3898725875724267  0.2782634226691201  0.3623794618029237
  0.3339113163295693  0.1674628571124259  0.3614192334113255
  0.3897262449418619  0.4462246778936603  0.3651948743611158
  0.3335209643811154  0.3337867061508959  0.3652848476084074
  0.3892844878273465  0.6125202425148117  0.3617084233307821
  0.3333393115678760  0.5017296880364270  0.3625890495817288
  0.3893274309382875  0.7789477323784411  0.3609938341607517
  0.3337017639524475  0.6679493793486344  0.3610547595663505
  0.3893417898637139  0.9454475882867897  0.3607576913425916
  0.3337723946286246  0.8344791022609073  0.3608741007278340
  0.5560699766610497  0.1120610341708996  0.3601257110712410
  0.5004708430741900  0.0010088264140862  0.3605393595468414
  0.5562096939763350  0.2787179998542229  0.3598961532926950
  0.5005693425787143  0.1676697718814566  0.3602000960574188
  0.5564880566277139  0.4456540581682447  0.3606351072433824
  0.5008185933774740  0.3343094398421158  0.3606150572271147
  0.5564306704888793  0.6125175715002271  0.3615468974381315
  0.5016059206959653  0.5017292534931741  0.3623537335730092
  0.5559830559012724  0.7787779663917505  0.3612142324964935
  0.5005399389282559  0.6678915036164170  0.3616333420316238
  0.5559766784727103  0.9454264129815755  0.3606836028017213
  0.5004081915632526  0.8343990745326550  0.3610359358554120
  0.7226297157217942  0.1120113080543419  0.3600195991306663
  0.6671180908066106  0.0010052964394163  0.3604344638925170
  0.7227150299066523  0.2787356783909658  0.3596099004383291
  0.6671385730099715  0.1676397307068953  0.3598357902585505
  0.7228627955690428  0.4454647657088202  0.3596772636038708
  0.6673229814703419  0.3343779702994780  0.3595984142225532
  0.7228527250590560  0.6122209476560201  0.3604200871201613
  0.6674538387725661  0.5011848237473373  0.3600213376734018
  0.7228093826786761  0.7789162693834868  0.3608452233817090
  0.6674365753122018  0.6679220264013424  0.3608565135872226
  0.7226665027016779  0.9454055959938685  0.3606427423214313
  0.6671894126305631  0.8343851862958687  0.3609541215685184
  0.8892350974669725  0.1120272351660745  0.3602607772839832
  0.8337554908313791  0.0009728469563655  0.3605345941821696
  0.8892881964115276  0.2787134248434526  0.3597132621359691
  0.8337641966708915  0.1676240113670957  0.3599397705945506
  0.8893314801867476  0.4453907936074515  0.3597312521692828
  0.8338228245386432  0.3343616470060624  0.3596264924221586
  0.8893930395945091  0.6121470621060183  0.3600568983220143
  0.8338823752535873  0.5010506087927027  0.3597792826995274
  0.8894275776750789  0.7788372112377502  0.3606058295551122
  0.8339493340731892  0.6677743113488148  0.3603522388526841
  0.8893098985464789  0.9454056052046909  0.3606754694045691
  0.8338992121447433  0.8344383142652632  0.3607353479376982
  0.3633129155368522  0.3912284875840868  0.4748773082913402
  0.3672723306404038  0.3955028838621288  0.6052988264378669
 
  0.00000000E+00  0.00000000E+00  0.00000000E+00
  0.00000000E+00  0.00000000E+00  0.00000000E+00
  0.00000000E+00  0.00000000E+00  0.00000000E+00
  0.00000000E+00  0.00000000E+00  0.00000000E+00
  0.00000000E+00  0.00000000E+00  0.00000000E+00
  0.00000000E+00  0.00000000E+00  0.00000000E+00
  0.00000000E+00  0.00000000E+00  0.00000000E+00
  0.00000000E+00  0.00000000E+00  0.00000000E+00
  0.00000000E+00  0.00000000E+00  0.00000000E+00
  0.00000000E+00  0.00000000E+00  0.00000000E+00
  0.00000000E+00  0.00000000E+00  0.00000000E+00
  0.00000000E+00  0.00000000E+00  0.00000000E+00
  0.00000000E+00  0.00000000E+00  0.00000000E+00
  0.00000000E+00  0.00000000E+00  0.00000000E+00
  0.00000000E+00  0.00000000E+00  0.00000000E+00
  0.00000000E+00  0.00000000E+00  0.00000000E+00
  0.00000000E+00  0.00000000E+00  0.00000000E+00
  0.00000000E+00  0.00000000E+00  0.00000000E+00
  0.00000000E+00  0.00000000E+00  0.00000000E+00
  0.00000000E+00  0.00000000E+00  0.00000000E+00
  0.00000000E+00  0.00000000E+00  0.00000000E+00
  0.00000000E+00  0.00000000E+00  0.00000000E+00
  0.00000000E+00  0.00000000E+00  0.00000000E+00
  0.00000000E+00  0.00000000E+00  0.00000000E+00
  0.00000000E+00  0.00000000E+00  0.00000000E+00
  0.00000000E+00  0.00000000E+00  0.00000000E+00
  0.00000000E+00  0.00000000E+00  0.00000000E+00
  0.00000000E+00  0.00000000E+00  0.00000000E+00
  0.00000000E+00  0.00000000E+00  0.00000000E+00
  0.00000000E+00  0.00000000E+00  0.00000000E+00
  0.00000000E+00  0.00000000E+00  0.00000000E+00
  0.00000000E+00  0.00000000E+00  0.00000000E+00
  0.00000000E+00  0.00000000E+00  0.00000000E+00
  0.00000000E+00  0.00000000E+00  0.00000000E+00
  0.00000000E+00  0.00000000E+00  0.00000000E+00
  0.00000000E+00  0.00000000E+00  0.00000000E+00
  0.00000000E+00  0.00000000E+00  0.00000000E+00
  0.00000000E+00  0.00000000E+00  0.00000000E+00
  0.00000000E+00  0.00000000E+00  0.00000000E+00
  0.00000000E+00  0.00000000E+00  0.00000000E+00
  0.00000000E+00  0.00000000E+00  0.00000000E+00
  0.00000000E+00  0.00000000E+00  0.00000000E+00
  0.00000000E+00  0.00000000E+00  0.00000000E+00
  0.00000000E+00  0.00000000E+00  0.00000000E+00
  0.00000000E+00  0.00000000E+00  0.00000000E+00
  0.00000000E+00  0.00000000E+00  0.00000000E+00
  0.00000000E+00  0.00000000E+00  0.00000000E+00
  0.00000000E+00  0.00000000E+00  0.00000000E+00
  0.00000000E+00  0.00000000E+00  0.00000000E+00
  0.00000000E+00  0.00000000E+00  0.00000000E+00
  0.00000000E+00  0.00000000E+00  0.00000000E+00
  0.00000000E+00  0.00000000E+00  0.00000000E+00
  0.00000000E+00  0.00000000E+00  0.00000000E+00
  0.00000000E+00  0.00000000E+00  0.00000000E+00
  0.00000000E+00  0.00000000E+00  0.00000000E+00
  0.00000000E+00  0.00000000E+00  0.00000000E+00
  0.00000000E+00  0.00000000E+00  0.00000000E+00
  0.00000000E+00  0.00000000E+00  0.00000000E+00
  0.00000000E+00  0.00000000E+00  0.00000000E+00
  0.00000000E+00  0.00000000E+00  0.00000000E+00
  0.00000000E+00  0.00000000E+00  0.00000000E+00
  0.00000000E+00  0.00000000E+00  0.00000000E+00
  0.00000000E+00  0.00000000E+00  0.00000000E+00
  0.00000000E+00  0.00000000E+00  0.00000000E+00
  0.00000000E+00  0.00000000E+00  0.00000000E+00
  0.00000000E+00  0.00000000E+00  0.00000000E+00
  0.00000000E+00  0.00000000E+00  0.00000000E+00
  0.00000000E+00  0.00000000E+00  0.00000000E+00
  0.00000000E+00  0.00000000E+00  0.00000000E+00
  0.00000000E+00  0.00000000E+00  0.00000000E+00
  0.00000000E+00  0.00000000E+00  0.00000000E+00
  0.00000000E+00  0.00000000E+00  0.00000000E+00
  0.00000000E+00  0.00000000E+00  0.00000000E+00
  0.00000000E+00  0.00000000E+00  0.00000000E+00
