C4                                      
   1.00000000000000     
    14.8063199999999995    0.0000000000000000    0.0000000000000000
    -7.4031599999999997   12.8226492600000004    0.0000000000000000
     0.0000000000000000    0.0000000000000000   17.0000000000000000
   C    Au
    72     3
Direct
  0.0555049019454330  0.1110905988707103  0.3836144498556351
  0.9999431049579357  0.9999595117317099  0.3835142067655468
  0.0554820827026887  0.2777719807228820  0.3833236984693400
  0.9999382609809473  0.1666446790050031  0.3835367156796963
  0.0554558321715248  0.4444302572422956  0.3829270295178304
  0.9999196444765559  0.3333170013120821  0.3829610701679940
  0.0554580583767361  0.6110679723810719  0.3827526276746909
  0.9998794241689453  0.4999633910328498  0.3823855613543259
  0.0554656679947598  0.7777220176472923  0.3830261636654555
  0.9998769818336513  0.6665907652359877  0.3823889286496041
  0.0554980957277991  0.9444193559266481  0.3833915136527182
  0.9999290382943045  0.8332826224599401  0.3830178519378222
  0.2222263827933659  0.1111294775042495  0.3830740184221000
  0.1666386145715322  0.9999987192214377  0.3833303707809463
  0.2222262941576645  0.2777657884660485  0.3829580069974625
  0.1666476812976256  0.1666529386948099  0.3832955076626874
  0.2222056372810215  0.4444329947002714  0.3830815474991454
  0.1666303416535015  0.3332956256799662  0.3831632952215998
  0.2221588591726729  0.6110746994345320  0.3834576143439463
  0.1665865513073754  0.4999488766003068  0.3832301471706572
  0.2221584806542793  0.7777271185223853  0.3835612329071481
  0.1665863883320640  0.6666076865750767  0.3834028404354370
  0.2222047251549881  0.9444524789135329  0.3833608810641778
  0.1666084992919892  0.8332934140443626  0.3834242382409769
  0.3889038400515261  0.1111430219561669  0.3824601473431031
  0.3333325737803108  0.0000107143827321  0.3831578790046422
  0.3889454754582715  0.2778097412850826  0.3815390077843901
  0.3333538871566546  0.1666946517128309  0.3823741668672795
  0.3889055506153341  0.4443896888912917  0.3818263745471313
  0.3333581995168586  0.3333128986218696  0.3820657900949627
  0.3888557442868290  0.6110401356227300  0.3829923583861827
  0.3333385158728461  0.4999281421499404  0.3827264863549473
  0.3888418122202069  0.7777241242076087  0.3836065946288869
  0.3332880439518888  0.6665843499214361  0.3834933326619279
  0.3888507874193792  0.9444340562145044  0.3833858395611571
  0.3332908442579239  0.8332902195717153  0.3836642412992290
  0.5555146831969253  0.1111295657530960  0.3822510055951511
  0.4999640410382185  0.9999966338280473  0.3830829544368157
  0.5555610986706867  0.2778176020721972  0.3802188028513243
  0.5000165945013748  0.1667180460194473  0.3817222557114377
  0.5555620537378161  0.4444016518455456  0.3794262202651950
  0.5000401097217946  0.3333616556159953  0.3801397301368183
  0.5555200876100699  0.6110252351448437  0.3817153005578291
  0.4999723345924352  0.4998450574778701  0.3808570217307903
  0.5554963073847929  0.7776997102038337  0.3829903587874384
  0.4999694511405295  0.6665789136357105  0.3826195254899929
  0.5554815968005400  0.9444098469036390  0.3832204118354738
  0.4999650827887621  0.8332780853170902  0.3833728244802401
  0.7221342171336147  0.1111158608569127  0.3827032033011548
  0.6666060526254967  0.9999807759424328  0.3830770185598169
  0.7220702658001485  0.2777456409421291  0.3808849234626450
  0.6666001872121043  0.1666714956270923  0.3818835770441993
  0.7221707151511652  0.4444193259176714  0.3789423147753439
  0.6666146702951821  0.3333411268872339  0.3794776082435405
  0.7221621917096286  0.6110025591411556  0.3802292662257685
  0.6666329182254884  0.4999608155611668  0.3789570765656762
  0.7221663705909904  0.7776644561461339  0.3823926819859764
  0.6666867069262139  0.6665782883123370  0.3814064247961255
  0.7221449733548084  0.9443868529925652  0.3831848514890908
  0.6666210618565600  0.8332395709667821  0.3829030863680316
  0.8887919188610951  0.1110902237099651  0.3834014249335027
  0.8332783592266466  0.9999586480054816  0.3833737503348331
  0.8888043246442479  0.2777751380716182  0.3825627645342990
  0.8332509488313846  0.1666536367570899  0.3829101029979896
  0.8888110058108722  0.4444970857795454  0.3813386173254756
  0.8332649643056982  0.3333254292718877  0.3816690978365642
  0.8887612623908083  0.6110176206681928  0.3811306612738719
  0.8332211389552029  0.4999571959462443  0.3801550046207822
  0.8887986724998953  0.7776814648422175  0.3824137382646313
  0.8332301045262298  0.6665564959047998  0.3811728412356103
  0.8888178260780890  0.9443913552658856  0.3833405849024061
  0.8332825805402351  0.8332596349553327  0.3827411246529806
  0.5790504324380237  0.5526247735995256  0.5776441354110347
  0.7764541316777667  0.3564842379580000  0.5771937425119091
  0.6498026932610443  0.4265346896899587  0.5808759177976057
 
  0.00000000E+00  0.00000000E+00  0.00000000E+00
  0.00000000E+00  0.00000000E+00  0.00000000E+00
  0.00000000E+00  0.00000000E+00  0.00000000E+00
  0.00000000E+00  0.00000000E+00  0.00000000E+00
  0.00000000E+00  0.00000000E+00  0.00000000E+00
  0.00000000E+00  0.00000000E+00  0.00000000E+00
  0.00000000E+00  0.00000000E+00  0.00000000E+00
  0.00000000E+00  0.00000000E+00  0.00000000E+00
  0.00000000E+00  0.00000000E+00  0.00000000E+00
  0.00000000E+00  0.00000000E+00  0.00000000E+00
  0.00000000E+00  0.00000000E+00  0.00000000E+00
  0.00000000E+00  0.00000000E+00  0.00000000E+00
  0.00000000E+00  0.00000000E+00  0.00000000E+00
  0.00000000E+00  0.00000000E+00  0.00000000E+00
  0.00000000E+00  0.00000000E+00  0.00000000E+00
  0.00000000E+00  0.00000000E+00  0.00000000E+00
  0.00000000E+00  0.00000000E+00  0.00000000E+00
  0.00000000E+00  0.00000000E+00  0.00000000E+00
  0.00000000E+00  0.00000000E+00  0.00000000E+00
  0.00000000E+00  0.00000000E+00  0.00000000E+00
  0.00000000E+00  0.00000000E+00  0.00000000E+00
  0.00000000E+00  0.00000000E+00  0.00000000E+00
  0.00000000E+00  0.00000000E+00  0.00000000E+00
  0.00000000E+00  0.00000000E+00  0.00000000E+00
  0.00000000E+00  0.00000000E+00  0.00000000E+00
  0.00000000E+00  0.00000000E+00  0.00000000E+00
  0.00000000E+00  0.00000000E+00  0.00000000E+00
  0.00000000E+00  0.00000000E+00  0.00000000E+00
  0.00000000E+00  0.00000000E+00  0.00000000E+00
  0.00000000E+00  0.00000000E+00  0.00000000E+00
  0.00000000E+00  0.00000000E+00  0.00000000E+00
  0.00000000E+00  0.00000000E+00  0.00000000E+00
  0.00000000E+00  0.00000000E+00  0.00000000E+00
  0.00000000E+00  0.00000000E+00  0.00000000E+00
  0.00000000E+00  0.00000000E+00  0.00000000E+00
  0.00000000E+00  0.00000000E+00  0.00000000E+00
  0.00000000E+00  0.00000000E+00  0.00000000E+00
  0.00000000E+00  0.00000000E+00  0.00000000E+00
  0.00000000E+00  0.00000000E+00  0.00000000E+00
  0.00000000E+00  0.00000000E+00  0.00000000E+00
  0.00000000E+00  0.00000000E+00  0.00000000E+00
  0.00000000E+00  0.00000000E+00  0.00000000E+00
  0.00000000E+00  0.00000000E+00  0.00000000E+00
  0.00000000E+00  0.00000000E+00  0.00000000E+00
  0.00000000E+00  0.00000000E+00  0.00000000E+00
  0.00000000E+00  0.00000000E+00  0.00000000E+00
  0.00000000E+00  0.00000000E+00  0.00000000E+00
  0.00000000E+00  0.00000000E+00  0.00000000E+00
  0.00000000E+00  0.00000000E+00  0.00000000E+00
  0.00000000E+00  0.00000000E+00  0.00000000E+00
  0.00000000E+00  0.00000000E+00  0.00000000E+00
  0.00000000E+00  0.00000000E+00  0.00000000E+00
  0.00000000E+00  0.00000000E+00  0.00000000E+00
  0.00000000E+00  0.00000000E+00  0.00000000E+00
  0.00000000E+00  0.00000000E+00  0.00000000E+00
  0.00000000E+00  0.00000000E+00  0.00000000E+00
  0.00000000E+00  0.00000000E+00  0.00000000E+00
  0.00000000E+00  0.00000000E+00  0.00000000E+00
  0.00000000E+00  0.00000000E+00  0.00000000E+00
  0.00000000E+00  0.00000000E+00  0.00000000E+00
  0.00000000E+00  0.00000000E+00  0.00000000E+00
  0.00000000E+00  0.00000000E+00  0.00000000E+00
  0.00000000E+00  0.00000000E+00  0.00000000E+00
  0.00000000E+00  0.00000000E+00  0.00000000E+00
  0.00000000E+00  0.00000000E+00  0.00000000E+00
  0.00000000E+00  0.00000000E+00  0.00000000E+00
  0.00000000E+00  0.00000000E+00  0.00000000E+00
  0.00000000E+00  0.00000000E+00  0.00000000E+00
  0.00000000E+00  0.00000000E+00  0.00000000E+00
  0.00000000E+00  0.00000000E+00  0.00000000E+00
  0.00000000E+00  0.00000000E+00  0.00000000E+00
  0.00000000E+00  0.00000000E+00  0.00000000E+00
  0.00000000E+00  0.00000000E+00  0.00000000E+00
  0.00000000E+00  0.00000000E+00  0.00000000E+00
  0.00000000E+00  0.00000000E+00  0.00000000E+00
