C4                                      
   1.00000000000000     
    14.8063199999999995    0.0000000000000000    0.0000000000000000
    -7.4031599999999997   12.8226492600000004    0.0000000000000000
     0.0000000000000000    0.0000000000000000   18.0000000000000000
   C    Au
    72     2
Direct
  0.0553369626122802  0.1109617004029957  0.3621394593918481
  0.9999231880338542  0.9999172021084135  0.3616209363619873
  0.0553475788417899  0.2776638792780162  0.3617585400485908
  0.9998981451727929  0.1666282212762979  0.3616922896796311
  0.0554422667617231  0.4444523487533019  0.3610960000938377
  0.9998789580084235  0.3333256112466998  0.3610960000938377
  0.0555790317725169  0.6111501544093443  0.3609484628290716
  0.9999982612683880  0.5000221128552553  0.3608439509586816
  0.0555535962939402  0.7777739925878890  0.3611792799051727
  0.0000482432186288  0.6667631464372477  0.3609564130310048
  0.0555131160535325  0.9444641985458730  0.3616970555534778
  0.0000133983020874  0.8333891056653187  0.3612879812551952
  0.2221581345757215  0.1109830691514517  0.3634317192483749
  0.1667238192320823  0.0001142984641760  0.3622114140985744
  0.2211350151636111  0.2771593973741844  0.3655767907760961
  0.1663281747902801  0.1664115180245034  0.3636219692205813
  0.2220610108010845  0.4445817664091294  0.3633013358808412
  0.1663682943919582  0.3331961935908723  0.3633013358808412
  0.2221588738964968  0.6111498187237032  0.3616922896796311
  0.1665727895637730  0.5001141607219850  0.3617585400485908
  0.2222005026484908  0.7778231504123383  0.3612170879947456
  0.1666081773212369  0.6667278241291257  0.3611950184653665
  0.2222842824923319  0.9444641985458730  0.3616970555534778
  0.1667090373632334  0.8333891056653187  0.3612879812551952
  0.3889579377907140  0.1109617004029957  0.3621394593918481
  0.3333273440745685  0.9999172021084135  0.3616209363619873
  0.3893575822105859  0.2771593973741844  0.3655767907760961
  0.3334166832342191  0.1664115180245034  0.3636219692205813
  0.3892340627728785  0.4451349255457515  0.3703311811804326
  0.3329881872271230  0.3326430344542501  0.3703311811804326
  0.3888056067657857  0.6113665219754978  0.3636219692205813
  0.3328647077894118  0.5006186426258168  0.3655767907760961
  0.3888949359254354  0.7778608378915877  0.3616209363619873
  0.3332643522092908  0.6668163395970055  0.3621394593918481
  0.3888873907022443  0.9443744973620056  0.3612973755683555
  0.3333348792977588  0.8334035226379939  0.3612973755683555
  0.5556141026787600  0.1110502158708755  0.3611950184653665
  0.5000217873515069  0.9999548895876629  0.3612170879947456
  0.5556494904362239  0.2776638792780162  0.3617585400485908
  0.5000634061035001  0.1666282212762979  0.3616922896796311
  0.5558539556080433  0.4445817664091294  0.3633013358808412
  0.5001612291989161  0.3331961935908723  0.3633013358808412
  0.5558941152097177  0.6113665219754978  0.3636219692205813
  0.5010872648363929  0.5006186426258168  0.3655767907760961
  0.5554984707679154  0.7776637415358181  0.3622114140985744
  0.5000641554242762  0.6667949708485494  0.3634317192483749
  0.5555132326367627  0.9443889143346809  0.3612879812551952
  0.4999379975076650  0.8333138214541265  0.3616970555534778
  0.7221740467813689  0.1110148935627535  0.3609564130310048
  0.6666686937060575  0.0000040474121121  0.3611792799051727
  0.7222240187316160  0.2777559271447458  0.3608439509586816
  0.6666432582274808  0.1666278855906569  0.3609484628290716
  0.7223432819915772  0.4444523487533019  0.3610960000938377
  0.6667799832382784  0.3333256112466998  0.3610960000938377
  0.7223241348272040  0.6111498187237032  0.3616922896796311
  0.6668747011582070  0.5001141607219850  0.3617585400485908
  0.7222991019661436  0.7778608378915877  0.3616209363619873
  0.6668853173877167  0.6668163395970055  0.3621394593918481
  0.7222088816979095  0.9443889143346809  0.3612879812551952
  0.6667091539464636  0.8333138214541265  0.3616970555534778
  0.8887693131921210  0.1110502158708755  0.3611950184653665
  0.8332664322361580  0.9999548895876629  0.3612170879947456
  0.8888651084131425  0.2777559271447458  0.3608439509586816
  0.8333179673631719  0.1666278855906569  0.3609484628290716
  0.8888639072552280  0.4443946145104576  0.3607532183652964
  0.8333583427447735  0.3333833454895441  0.3607532183652964
  0.8889043226368329  0.6111501544093443  0.3609484628290716
  0.8333571815868552  0.5000221128552553  0.3608439509586816
  0.8889558477638460  0.7778231504123383  0.3612170879947456
  0.8334529768078838  0.6667278241291257  0.3611950184653665
  0.8888202966597589  0.9443744973620056  0.3612973755683555
  0.8334019733402442  0.8334035226379939  0.3612973755683555
  0.3611112700000021  0.3888892100000021  0.4957123553620519
  0.3611112700000021  0.3888892100000021  0.6349351666669207
 
  0.00000000E+00  0.00000000E+00  0.00000000E+00
  0.00000000E+00  0.00000000E+00  0.00000000E+00
  0.00000000E+00  0.00000000E+00  0.00000000E+00
  0.00000000E+00  0.00000000E+00  0.00000000E+00
  0.00000000E+00  0.00000000E+00  0.00000000E+00
  0.00000000E+00  0.00000000E+00  0.00000000E+00
  0.00000000E+00  0.00000000E+00  0.00000000E+00
  0.00000000E+00  0.00000000E+00  0.00000000E+00
  0.00000000E+00  0.00000000E+00  0.00000000E+00
  0.00000000E+00  0.00000000E+00  0.00000000E+00
  0.00000000E+00  0.00000000E+00  0.00000000E+00
  0.00000000E+00  0.00000000E+00  0.00000000E+00
  0.00000000E+00  0.00000000E+00  0.00000000E+00
  0.00000000E+00  0.00000000E+00  0.00000000E+00
  0.00000000E+00  0.00000000E+00  0.00000000E+00
  0.00000000E+00  0.00000000E+00  0.00000000E+00
  0.00000000E+00  0.00000000E+00  0.00000000E+00
  0.00000000E+00  0.00000000E+00  0.00000000E+00
  0.00000000E+00  0.00000000E+00  0.00000000E+00
  0.00000000E+00  0.00000000E+00  0.00000000E+00
  0.00000000E+00  0.00000000E+00  0.00000000E+00
  0.00000000E+00  0.00000000E+00  0.00000000E+00
  0.00000000E+00  0.00000000E+00  0.00000000E+00
  0.00000000E+00  0.00000000E+00  0.00000000E+00
  0.00000000E+00  0.00000000E+00  0.00000000E+00
  0.00000000E+00  0.00000000E+00  0.00000000E+00
  0.00000000E+00  0.00000000E+00  0.00000000E+00
  0.00000000E+00  0.00000000E+00  0.00000000E+00
  0.00000000E+00  0.00000000E+00  0.00000000E+00
  0.00000000E+00  0.00000000E+00  0.00000000E+00
  0.00000000E+00  0.00000000E+00  0.00000000E+00
  0.00000000E+00  0.00000000E+00  0.00000000E+00
  0.00000000E+00  0.00000000E+00  0.00000000E+00
  0.00000000E+00  0.00000000E+00  0.00000000E+00
  0.00000000E+00  0.00000000E+00  0.00000000E+00
  0.00000000E+00  0.00000000E+00  0.00000000E+00
  0.00000000E+00  0.00000000E+00  0.00000000E+00
  0.00000000E+00  0.00000000E+00  0.00000000E+00
  0.00000000E+00  0.00000000E+00  0.00000000E+00
  0.00000000E+00  0.00000000E+00  0.00000000E+00
  0.00000000E+00  0.00000000E+00  0.00000000E+00
  0.00000000E+00  0.00000000E+00  0.00000000E+00
  0.00000000E+00  0.00000000E+00  0.00000000E+00
  0.00000000E+00  0.00000000E+00  0.00000000E+00
  0.00000000E+00  0.00000000E+00  0.00000000E+00
  0.00000000E+00  0.00000000E+00  0.00000000E+00
  0.00000000E+00  0.00000000E+00  0.00000000E+00
  0.00000000E+00  0.00000000E+00  0.00000000E+00
  0.00000000E+00  0.00000000E+00  0.00000000E+00
  0.00000000E+00  0.00000000E+00  0.00000000E+00
  0.00000000E+00  0.00000000E+00  0.00000000E+00
  0.00000000E+00  0.00000000E+00  0.00000000E+00
  0.00000000E+00  0.00000000E+00  0.00000000E+00
  0.00000000E+00  0.00000000E+00  0.00000000E+00
  0.00000000E+00  0.00000000E+00  0.00000000E+00
  0.00000000E+00  0.00000000E+00  0.00000000E+00
  0.00000000E+00  0.00000000E+00  0.00000000E+00
  0.00000000E+00  0.00000000E+00  0.00000000E+00
  0.00000000E+00  0.00000000E+00  0.00000000E+00
  0.00000000E+00  0.00000000E+00  0.00000000E+00
  0.00000000E+00  0.00000000E+00  0.00000000E+00
  0.00000000E+00  0.00000000E+00  0.00000000E+00
  0.00000000E+00  0.00000000E+00  0.00000000E+00
  0.00000000E+00  0.00000000E+00  0.00000000E+00
  0.00000000E+00  0.00000000E+00  0.00000000E+00
  0.00000000E+00  0.00000000E+00  0.00000000E+00
  0.00000000E+00  0.00000000E+00  0.00000000E+00
  0.00000000E+00  0.00000000E+00  0.00000000E+00
  0.00000000E+00  0.00000000E+00  0.00000000E+00
  0.00000000E+00  0.00000000E+00  0.00000000E+00
  0.00000000E+00  0.00000000E+00  0.00000000E+00
  0.00000000E+00  0.00000000E+00  0.00000000E+00
  0.00000000E+00  0.00000000E+00  0.00000000E+00
  0.00000000E+00  0.00000000E+00  0.00000000E+00
