C4                                      
   1.00000000000000     
    14.8063199999999995    0.0000000000000000    0.0000000000000000
    -7.4031599999999997   12.8226492600000004    0.0000000000000000
     0.0000000000000000    0.0000000000000000   18.0000000000000000
   C    Cu
    72     2
Direct
  0.0552690516835099  0.1107577048954766  0.3661322918312848
  0.9998216701777167  0.9997382353950073  0.3652314457731478
  0.0552786865908743  0.2778187880363774  0.3660878809070383
  0.9998806451983384  0.1665922104212427  0.3660338129911551
  0.0554772659631197  0.4444852798334651  0.3646786632934749
  0.9998204685799408  0.3333802045501741  0.3651777976840478
  0.0555157059251741  0.6110955388962296  0.3638983636317121
  0.9999202447988438  0.5000181405558735  0.3642679141611893
  0.0555104238638009  0.7777195458120687  0.3639089981890251
  0.9999174503067252  0.6666084366004839  0.3639144696666321
  0.0554696351772819  0.9442826447159405  0.3647277920066685
  0.9999148329309691  0.8331990865296817  0.3642880427830093
  0.2221051381730277  0.1107094518072387  0.3655390429465939
  0.1665604336228768  0.9997428976436140  0.3646311526012980
  0.2216073215912289  0.2774496732175677  0.3695740962521157
  0.1661103098967303  0.1656886162235196  0.3670706277624234
  0.2221090396083341  0.4446948053983206  0.3654886472696788
  0.1661077670075244  0.3337201926531677  0.3670339005338974
  0.2222218687475603  0.6112294887742564  0.3639618423027855
  0.1665685885176558  0.5001174740362941  0.3645704890968133
  0.2222396976804362  0.7777613351159047  0.3635874555516310
  0.1666189841188981  0.6666621319402921  0.3637233843555805
  0.2222198135430062  0.9442906972069522  0.3640097442085448
  0.1666109075546416  0.8332489416976969  0.3637432051529217
  0.3889640288617215  0.1109495215560443  0.3646018712908727
  0.3333194968150792  0.9998446456471299  0.3640186882260181
  0.3894209205859980  0.2773458498040213  0.3670333183670849
  0.3334303778899965  0.1663797476678894  0.3655205123906882
  0.3894299677928501  0.4453833121265944  0.3670199200540409
  0.3339348642391116  0.3336180584000843  0.3695700167817364
  0.3889730937990237  0.6113201924359828  0.3645603448393473
  0.3334340830822669  0.5003583309562529  0.3654859926784511
  0.3889141915541146  0.7778056215163716  0.3637285479710428
  0.3333163812000066  0.6667725691720108  0.3639621008472957
  0.3889153590344634  0.9443985995350062  0.3637620687902583
  0.3332967618975502  0.8332892261931661  0.3635961375196288
  0.5556123988043993  0.1110421756280431  0.3642893817668096
  0.5000111442072068  0.9999571173983313  0.3639104902105359
  0.5557029056197180  0.2776868807830652  0.3651840923641743
  0.5000551356335876  0.1665787387701059  0.3647090906244514
  0.5556481571190304  0.4444737959768119  0.3660087316851275
  0.5002553057659043  0.3332598818761099  0.3660894222929159
  0.5557071295095213  0.6113142657554178  0.3651590704997716
  0.5002546779748798  0.5003036725806567  0.3660865679592575
  0.5556081665848964  0.7778640089413216  0.3642594051501788
  0.5000629502573446  0.6667757926425821  0.3646780297529588
  0.5556129050050558  0.9444495858166349  0.3639068567482227
  0.5000127851261382  0.8333431519423016  0.3638988251898070
  0.7222692841889256  0.1111103471291557  0.3644714884920361
  0.6666668736739538  0.9999794724987510  0.3642426608192935
  0.7222572745875269  0.2777422487943824  0.3645940391359090
  0.6666949000589781  0.1666254101912870  0.3644243547226651
  0.7222154477370921  0.4443953343107196  0.3648987803431680
  0.6667290529629923  0.3333014458390551  0.3648640417704314
  0.7222156761216212  0.6111247678650855  0.3649018518042126
  0.6665946652629273  0.4999468806927254  0.3652822537284877
  0.7222522991466676  0.7778030342478104  0.3645838069381142
  0.6667289468586333  0.6667216649894598  0.3648592211678618
  0.7222594392396928  0.9444472868678417  0.3644583163122235
  0.6666834857222312  0.8333567442106400  0.3644006978987377
  0.8889310906701553  0.1111176592716632  0.3652934392571296
  0.8333152705750777  0.9999400536992979  0.3649133229378094
  0.8887958323277232  0.2777582266137699  0.3648735637824245
  0.8333171229197234  0.1666735929756271  0.3649071157503272
  0.8888413036942424  0.4444322337579649  0.3644295750959401
  0.8332771459161208  0.3333142860570248  0.3645912010717396
  0.8888648276366951  0.6110830462660672  0.3642527467986696
  0.8332729599925202  0.4999540794075727  0.3644620878901321
  0.8888410936877946  0.7776995579640058  0.3644257515114688
  0.8332657146122884  0.6666134128949892  0.3644612726681231
  0.8888006630896896  0.9443353947607989  0.3648873900087466
  0.8332786762896660  0.8332474311015332  0.3645992469334800
  0.2777552774821217  0.3057090384888141  0.4816526153133083
  0.2786643359268055  0.3071615440251705  0.6053819328941970
 
  0.00000000E+00  0.00000000E+00  0.00000000E+00
  0.00000000E+00  0.00000000E+00  0.00000000E+00
  0.00000000E+00  0.00000000E+00  0.00000000E+00
  0.00000000E+00  0.00000000E+00  0.00000000E+00
  0.00000000E+00  0.00000000E+00  0.00000000E+00
  0.00000000E+00  0.00000000E+00  0.00000000E+00
  0.00000000E+00  0.00000000E+00  0.00000000E+00
  0.00000000E+00  0.00000000E+00  0.00000000E+00
  0.00000000E+00  0.00000000E+00  0.00000000E+00
  0.00000000E+00  0.00000000E+00  0.00000000E+00
  0.00000000E+00  0.00000000E+00  0.00000000E+00
  0.00000000E+00  0.00000000E+00  0.00000000E+00
  0.00000000E+00  0.00000000E+00  0.00000000E+00
  0.00000000E+00  0.00000000E+00  0.00000000E+00
  0.00000000E+00  0.00000000E+00  0.00000000E+00
  0.00000000E+00  0.00000000E+00  0.00000000E+00
  0.00000000E+00  0.00000000E+00  0.00000000E+00
  0.00000000E+00  0.00000000E+00  0.00000000E+00
  0.00000000E+00  0.00000000E+00  0.00000000E+00
  0.00000000E+00  0.00000000E+00  0.00000000E+00
  0.00000000E+00  0.00000000E+00  0.00000000E+00
  0.00000000E+00  0.00000000E+00  0.00000000E+00
  0.00000000E+00  0.00000000E+00  0.00000000E+00
  0.00000000E+00  0.00000000E+00  0.00000000E+00
  0.00000000E+00  0.00000000E+00  0.00000000E+00
  0.00000000E+00  0.00000000E+00  0.00000000E+00
  0.00000000E+00  0.00000000E+00  0.00000000E+00
  0.00000000E+00  0.00000000E+00  0.00000000E+00
  0.00000000E+00  0.00000000E+00  0.00000000E+00
  0.00000000E+00  0.00000000E+00  0.00000000E+00
  0.00000000E+00  0.00000000E+00  0.00000000E+00
  0.00000000E+00  0.00000000E+00  0.00000000E+00
  0.00000000E+00  0.00000000E+00  0.00000000E+00
  0.00000000E+00  0.00000000E+00  0.00000000E+00
  0.00000000E+00  0.00000000E+00  0.00000000E+00
  0.00000000E+00  0.00000000E+00  0.00000000E+00
  0.00000000E+00  0.00000000E+00  0.00000000E+00
  0.00000000E+00  0.00000000E+00  0.00000000E+00
  0.00000000E+00  0.00000000E+00  0.00000000E+00
  0.00000000E+00  0.00000000E+00  0.00000000E+00
  0.00000000E+00  0.00000000E+00  0.00000000E+00
  0.00000000E+00  0.00000000E+00  0.00000000E+00
  0.00000000E+00  0.00000000E+00  0.00000000E+00
  0.00000000E+00  0.00000000E+00  0.00000000E+00
  0.00000000E+00  0.00000000E+00  0.00000000E+00
  0.00000000E+00  0.00000000E+00  0.00000000E+00
  0.00000000E+00  0.00000000E+00  0.00000000E+00
  0.00000000E+00  0.00000000E+00  0.00000000E+00
  0.00000000E+00  0.00000000E+00  0.00000000E+00
  0.00000000E+00  0.00000000E+00  0.00000000E+00
  0.00000000E+00  0.00000000E+00  0.00000000E+00
  0.00000000E+00  0.00000000E+00  0.00000000E+00
  0.00000000E+00  0.00000000E+00  0.00000000E+00
  0.00000000E+00  0.00000000E+00  0.00000000E+00
  0.00000000E+00  0.00000000E+00  0.00000000E+00
  0.00000000E+00  0.00000000E+00  0.00000000E+00
  0.00000000E+00  0.00000000E+00  0.00000000E+00
  0.00000000E+00  0.00000000E+00  0.00000000E+00
  0.00000000E+00  0.00000000E+00  0.00000000E+00
  0.00000000E+00  0.00000000E+00  0.00000000E+00
  0.00000000E+00  0.00000000E+00  0.00000000E+00
  0.00000000E+00  0.00000000E+00  0.00000000E+00
  0.00000000E+00  0.00000000E+00  0.00000000E+00
  0.00000000E+00  0.00000000E+00  0.00000000E+00
  0.00000000E+00  0.00000000E+00  0.00000000E+00
  0.00000000E+00  0.00000000E+00  0.00000000E+00
  0.00000000E+00  0.00000000E+00  0.00000000E+00
  0.00000000E+00  0.00000000E+00  0.00000000E+00
  0.00000000E+00  0.00000000E+00  0.00000000E+00
  0.00000000E+00  0.00000000E+00  0.00000000E+00
  0.00000000E+00  0.00000000E+00  0.00000000E+00
  0.00000000E+00  0.00000000E+00  0.00000000E+00
  0.00000000E+00  0.00000000E+00  0.00000000E+00
  0.00000000E+00  0.00000000E+00  0.00000000E+00
