C4                                      
   1.00000000000000     
    14.8063199999999995    0.0000000000000000    0.0000000000000000
    -7.4031599999999997   12.8226492600000004    0.0000000000000000
     0.0000000000000000    0.0000000000000000   18.0000000000000000
   C    Pt
    72     2
Direct
  0.0551007576193783  0.1108708938995235  0.3666240040336319
  0.9997957350550237  0.9999101673665791  0.3652444217606927
  0.0553677875737435  0.2782105517098827  0.3660539848620203
  0.9999131829790855  0.1667846966512414  0.3662088895405518
  0.0554796532212762  0.4447067524644055  0.3643989424852734
  0.9998373882679203  0.3336894919344857  0.3649449405181144
  0.0555148545739996  0.6113141434366938  0.3633903254232180
  0.9999210750436376  0.5002665598337899  0.3638729881316038
  0.0555456277513002  0.7779063571629976  0.3632961229945693
  0.9999398191686595  0.6668204195301186  0.3634416956132469
  0.0554188496988317  0.9443994717278557  0.3643196368623549
  0.9999412854346730  0.8334286259233750  0.3638360928607440
  0.2220866852467651  0.1105293208418914  0.3650364797859211
  0.1665780628019320  0.9998179371332938  0.3637874723341383
  0.2214484533073247  0.2778923485713634  0.3712440591679496
  0.1660551776176789  0.1657794441582610  0.3679789532246858
  0.2220023174512775  0.4448030356441066  0.3655755813241583
  0.1658362660093573  0.3342279943950857  0.3672534807266601
  0.2222580390811970  0.6114338308126506  0.3636328429216249
  0.1665944460087019  0.5002985319862603  0.3643800361143263
  0.2222789117152715  0.7779135873377712  0.3628407139174854
  0.1666679914353111  0.6668523488776970  0.3631690919237585
  0.2222751845046531  0.9443993349583693  0.3630113027265409
  0.1666543838642127  0.8333983516472330  0.3629097795914902
  0.3890445945473999  0.1110540965019027  0.3637666266433399
  0.3333532861331037  0.9999400413489354  0.3630112002344745
  0.3895532452807444  0.2775374537643103  0.3679314588018059
  0.3335369136436128  0.1662610388360903  0.3650114165384224
  0.3897508541922363  0.4461725874253375  0.3673443052768590
  0.3341469827413235  0.3342284728123843  0.3713077988553195
  0.3890076635376971  0.6114980793363003  0.3644225241512657
  0.3335995129647884  0.5005943319757193  0.3656157179977768
  0.3889501389548684  0.7779933866595812  0.3632138008005725
  0.3333498515277284  0.6669799492425241  0.3636546948023565
  0.3889713505217856  0.9445617120531793  0.3629220560417323
  0.3333499532622639  0.8334527113318657  0.3628620304559291
  0.5556848770032659  0.1113085123684456  0.3638391407667569
  0.5000766312935028  0.0001816848838914  0.3633024345204703
  0.5558094201057955  0.2779272130957722  0.3652541262218989
  0.5002024348311522  0.1667999223334320  0.3643093966889808
  0.5556816604867905  0.4446772007367628  0.3662711876719271
  0.5004894063304803  0.3335741263577816  0.3666216960856801
  0.5557693022212433  0.6116596157795229  0.3650115108655996
  0.5002222769316660  0.5006414875450105  0.3661388527893692
  0.5556884757620111  0.7781509597761911  0.3639046558970307
  0.5001254324273603  0.6670308183754372  0.3644523760446177
  0.5556725893827377  0.9446888487372505  0.3634542016698035
  0.5001021184355281  0.8336073800790018  0.3634340688867113
  0.7223671054285532  0.1113864589275124  0.3642095942949837
  0.6667542221240552  0.0002336215417102  0.3639365808525952
  0.7223037806784660  0.2779574927118418  0.3643977681139177
  0.6668051548175100  0.1669144398441560  0.3641512454962097
  0.7222218634396498  0.4446196158423135  0.3648952685020106
  0.6667905381068948  0.3335317452092426  0.3648388507952234
  0.7222425439038247  0.6113833750432178  0.3647828014345009
  0.6665815796210168  0.5001521173915009  0.3653183880302535
  0.7222794962821411  0.7780342979499864  0.3643507291758894
  0.6668045072590161  0.6670279632509235  0.3646914824510361
  0.7223031089927971  0.9447156400336425  0.3642059133915936
  0.6667264813521925  0.8336084136349200  0.3641074384053056
  0.8890175725311309  0.1113581139988113  0.3652362405464373
  0.8333838437043042  0.0001913931246804  0.3648089135917800
  0.8888064208828794  0.2780241706478961  0.3646404291014065
  0.8333636679240541  0.1669335078493006  0.3647196912541162
  0.8888829930139934  0.4446972666455054  0.3641142278879883
  0.8333327926469920  0.3335681486590616  0.3643417859326590
  0.8888541462849773  0.6112825230375023  0.3639721158621185
  0.8333035360257455  0.5002226695601593  0.3642650442186692
  0.8888136607046135  0.7779145881542036  0.3641511209666675
  0.8332394919373556  0.6668211072089818  0.3642436639817603
  0.8888101855143589  0.9445384668247456  0.3647880023820633
  0.8333049531171000  0.8334551351022057  0.3643801094598231
  0.2770540357134692  0.2786755854207854  0.4868169744735127
  0.2765592100425849  0.3176967730236626  0.6135598218440492
 
  0.00000000E+00  0.00000000E+00  0.00000000E+00
  0.00000000E+00  0.00000000E+00  0.00000000E+00
  0.00000000E+00  0.00000000E+00  0.00000000E+00
  0.00000000E+00  0.00000000E+00  0.00000000E+00
  0.00000000E+00  0.00000000E+00  0.00000000E+00
  0.00000000E+00  0.00000000E+00  0.00000000E+00
  0.00000000E+00  0.00000000E+00  0.00000000E+00
  0.00000000E+00  0.00000000E+00  0.00000000E+00
  0.00000000E+00  0.00000000E+00  0.00000000E+00
  0.00000000E+00  0.00000000E+00  0.00000000E+00
  0.00000000E+00  0.00000000E+00  0.00000000E+00
  0.00000000E+00  0.00000000E+00  0.00000000E+00
  0.00000000E+00  0.00000000E+00  0.00000000E+00
  0.00000000E+00  0.00000000E+00  0.00000000E+00
  0.00000000E+00  0.00000000E+00  0.00000000E+00
  0.00000000E+00  0.00000000E+00  0.00000000E+00
  0.00000000E+00  0.00000000E+00  0.00000000E+00
  0.00000000E+00  0.00000000E+00  0.00000000E+00
  0.00000000E+00  0.00000000E+00  0.00000000E+00
  0.00000000E+00  0.00000000E+00  0.00000000E+00
  0.00000000E+00  0.00000000E+00  0.00000000E+00
  0.00000000E+00  0.00000000E+00  0.00000000E+00
  0.00000000E+00  0.00000000E+00  0.00000000E+00
  0.00000000E+00  0.00000000E+00  0.00000000E+00
  0.00000000E+00  0.00000000E+00  0.00000000E+00
  0.00000000E+00  0.00000000E+00  0.00000000E+00
  0.00000000E+00  0.00000000E+00  0.00000000E+00
  0.00000000E+00  0.00000000E+00  0.00000000E+00
  0.00000000E+00  0.00000000E+00  0.00000000E+00
  0.00000000E+00  0.00000000E+00  0.00000000E+00
  0.00000000E+00  0.00000000E+00  0.00000000E+00
  0.00000000E+00  0.00000000E+00  0.00000000E+00
  0.00000000E+00  0.00000000E+00  0.00000000E+00
  0.00000000E+00  0.00000000E+00  0.00000000E+00
  0.00000000E+00  0.00000000E+00  0.00000000E+00
  0.00000000E+00  0.00000000E+00  0.00000000E+00
  0.00000000E+00  0.00000000E+00  0.00000000E+00
  0.00000000E+00  0.00000000E+00  0.00000000E+00
  0.00000000E+00  0.00000000E+00  0.00000000E+00
  0.00000000E+00  0.00000000E+00  0.00000000E+00
  0.00000000E+00  0.00000000E+00  0.00000000E+00
  0.00000000E+00  0.00000000E+00  0.00000000E+00
  0.00000000E+00  0.00000000E+00  0.00000000E+00
  0.00000000E+00  0.00000000E+00  0.00000000E+00
  0.00000000E+00  0.00000000E+00  0.00000000E+00
  0.00000000E+00  0.00000000E+00  0.00000000E+00
  0.00000000E+00  0.00000000E+00  0.00000000E+00
  0.00000000E+00  0.00000000E+00  0.00000000E+00
  0.00000000E+00  0.00000000E+00  0.00000000E+00
  0.00000000E+00  0.00000000E+00  0.00000000E+00
  0.00000000E+00  0.00000000E+00  0.00000000E+00
  0.00000000E+00  0.00000000E+00  0.00000000E+00
  0.00000000E+00  0.00000000E+00  0.00000000E+00
  0.00000000E+00  0.00000000E+00  0.00000000E+00
  0.00000000E+00  0.00000000E+00  0.00000000E+00
  0.00000000E+00  0.00000000E+00  0.00000000E+00
  0.00000000E+00  0.00000000E+00  0.00000000E+00
  0.00000000E+00  0.00000000E+00  0.00000000E+00
  0.00000000E+00  0.00000000E+00  0.00000000E+00
  0.00000000E+00  0.00000000E+00  0.00000000E+00
  0.00000000E+00  0.00000000E+00  0.00000000E+00
  0.00000000E+00  0.00000000E+00  0.00000000E+00
  0.00000000E+00  0.00000000E+00  0.00000000E+00
  0.00000000E+00  0.00000000E+00  0.00000000E+00
  0.00000000E+00  0.00000000E+00  0.00000000E+00
  0.00000000E+00  0.00000000E+00  0.00000000E+00
  0.00000000E+00  0.00000000E+00  0.00000000E+00
  0.00000000E+00  0.00000000E+00  0.00000000E+00
  0.00000000E+00  0.00000000E+00  0.00000000E+00
  0.00000000E+00  0.00000000E+00  0.00000000E+00
  0.00000000E+00  0.00000000E+00  0.00000000E+00
  0.00000000E+00  0.00000000E+00  0.00000000E+00
  0.00000000E+00  0.00000000E+00  0.00000000E+00
  0.00000000E+00  0.00000000E+00  0.00000000E+00
