Comment                                 
   1.00000000000000     
    17.0000000000000000    0.0000000000000000    0.0000000000000000
     0.0000000000000000   17.0000000000000000    0.0000000000000000
     0.0000000000000000    0.0000000000000000   17.0000000000000000
   Cu
     4
Direct
  0.4576805444839913  0.5000000000000000  0.4666148598470359
  0.5571419801855628  0.5000000000000000  0.5643770448085320
  0.5936815350273920  0.5000000000000000  0.4362583583009729
  0.6931400579501109  0.5000000000000000  0.5339820899846320
 
  0.00000000E+00  0.00000000E+00  0.00000000E+00
  0.00000000E+00  0.00000000E+00  0.00000000E+00
  0.00000000E+00  0.00000000E+00  0.00000000E+00
  0.00000000E+00  0.00000000E+00  0.00000000E+00
