C4                                      
   1.00000000000000     
    14.8063199999999995    0.0000000000000000    0.0000000000000000
    -7.4031599999999997   12.8226492600000004    0.0000000000000000
     0.0000000000000000    0.0000000000000000   18.0000000000000000
   C    Pt   Au
    72     3     1
Direct
  0.0546653869587743  0.1102276182944024  0.3638507610744526
  0.9995966405607106  0.9995630933733821  0.3614160563908939
  0.0531175229630207  0.2761989445826458  0.3680767602230759
  0.9988498317414809  0.1655761776939499  0.3643704675385067
  0.0546517481677427  0.4441379048670058  0.3636917538702562
  0.9988068893893782  0.3325344497852285  0.3636275957412280
  0.0551045842843081  0.6107815260603644  0.3604343958153962
  0.9994659409440416  0.4995798107901166  0.3605578919551746
  0.0552547628909323  0.7774067967392568  0.3595498499341829
  0.9996570573786556  0.6663621154702142  0.3593800130255644
  0.0552738957810348  0.9440083136410991  0.3607244898406350
  0.9998158623502675  0.8330935140463041  0.3596890789766007
  0.2221149115324934  0.1102438027695456  0.3637956324967035
  0.1665178326143533  0.9995766814699323  0.3613431867151249
  0.2207811603908638  0.2750014077548073  0.3721564270202720
  0.1660863841492599  0.1656292770778762  0.3659584506834435
  0.2218495064163264  0.4453984893403913  0.3763389479716750
  0.1647141978143054  0.3313877130970724  0.3773065614082611
  0.2215986322308581  0.6109775562103152  0.3643084584972627
  0.1654018199971077  0.5003220591734205  0.3679316085657263
  0.2218172646850149  0.7773596918041363  0.3603243286618323
  0.1660593608362433  0.6664062586004249  0.3614175847656185
  0.2220055325528492  0.9438947707187850  0.3603337940791889
  0.1663320886664650  0.8329398065168476  0.3598559356606117
  0.3887899433087298  0.1101533328179158  0.3611952254673412
  0.3330447399125305  0.9992123835720648  0.3601710749412064
  0.3896279919931374  0.2762028023568561  0.3680339168306190
  0.3332790852940661  0.1655822368875377  0.3642849943768312
  0.3900940563378015  0.4453920734764196  0.3763838925396925
  0.3332209271355566  0.3313808314509785  0.3773038277336411
  0.3887201822933903  0.6108873582140077  0.3656121707841464
  0.3339073265166732  0.5012689328206434  0.3715521537907804
  0.3883520082581597  0.7770211971245331  0.3613063376189132
  0.3327496525499782  0.6663038809649962  0.3636584758025663
  0.3885258134054439  0.9436456360997454  0.3597097012778221
  0.3328624906495250  0.8327017828579955  0.3603493392143804
  0.5551947252011047  0.1102428174258279  0.3590746326674221
  0.4995899903894170  0.9991873478713416  0.3593212888765578
  0.5554300512565788  0.2770413024329770  0.3602575989706693
  0.4997606819548821  0.1658409845126840  0.3601273842050432
  0.5560229878306870  0.4441489880168064  0.3636633913522971
  0.5002592819924629  0.3325397676347919  0.3635648772100311
  0.5559363266452522  0.6109718810502613  0.3643297505180101
  0.5014573707786667  0.5003173785431940  0.3679490225820246
  0.5552134242201845  0.7770178738630236  0.3613191238322528
  0.5001039847414575  0.6662988735496853  0.3636779231652838
  0.5550234460544772  0.9435164320990381  0.3595058155984105
  0.4995516621219949  0.8325651636881801  0.3606327347516398
  0.7215916099000168  0.1102627780013918  0.3591287270620498
  0.6661401071736464  0.9992136885352210  0.3593633210644995
  0.7218079297396542  0.2770599707942338  0.3583765519093376
  0.6662074567904810  0.1658885659029323  0.3586511863108370
  0.7220760503254198  0.4438921478275333  0.3589278102169473
  0.6665280423163651  0.3327737662445074  0.3587729835186408
  0.7222228654215428  0.6107854315055334  0.3604309609235443
  0.6666566459531040  0.4995945923149350  0.3605121027851581
  0.7221016787507466  0.7773630911237959  0.3603533048852370
  0.6668983653558556  0.6664096991270654  0.3614227386720827
  0.7216757818886208  0.9436731551832978  0.3597707343660375
  0.6663944633227743  0.8327114646113145  0.3604060245574914
  0.8879098163299801  0.1101524582920206  0.3613163478420773
  0.8327239444241954  0.9992124028999854  0.3602800179374341
  0.8881394834650749  0.2770366092827103  0.3603723859894572
  0.8326270546248082  0.1658444251757984  0.3602505052134646
  0.8883579547505178  0.4438765130242004  0.3589632912705198
  0.8327915761456026  0.3327706108422603  0.3588449781715113
  0.8886474352076874  0.6107397949666264  0.3589550661043788
  0.8330645619776007  0.4995733505156679  0.3585896905227770
  0.8886884185632624  0.7774039081299335  0.3595713082538552
  0.8332506116091736  0.6663586321866219  0.3593905269835389
  0.8884332204872933  0.9438807497630890  0.3604216116159051
  0.8331551011132774  0.8329360817543829  0.3598795399069559
  0.1879978474029471  0.3817574772643155  0.4931489738166519
  0.2410235247700356  0.3157638994330867  0.6093125644605948
  0.3603464174829227  0.3818930509518381  0.4931878628471367
  0.3428180685687323  0.5186743151367139  0.5881041777725002
 
  0.00000000E+00  0.00000000E+00  0.00000000E+00
  0.00000000E+00  0.00000000E+00  0.00000000E+00
  0.00000000E+00  0.00000000E+00  0.00000000E+00
  0.00000000E+00  0.00000000E+00  0.00000000E+00
  0.00000000E+00  0.00000000E+00  0.00000000E+00
  0.00000000E+00  0.00000000E+00  0.00000000E+00
  0.00000000E+00  0.00000000E+00  0.00000000E+00
  0.00000000E+00  0.00000000E+00  0.00000000E+00
  0.00000000E+00  0.00000000E+00  0.00000000E+00
  0.00000000E+00  0.00000000E+00  0.00000000E+00
  0.00000000E+00  0.00000000E+00  0.00000000E+00
  0.00000000E+00  0.00000000E+00  0.00000000E+00
  0.00000000E+00  0.00000000E+00  0.00000000E+00
  0.00000000E+00  0.00000000E+00  0.00000000E+00
  0.00000000E+00  0.00000000E+00  0.00000000E+00
  0.00000000E+00  0.00000000E+00  0.00000000E+00
  0.00000000E+00  0.00000000E+00  0.00000000E+00
  0.00000000E+00  0.00000000E+00  0.00000000E+00
  0.00000000E+00  0.00000000E+00  0.00000000E+00
  0.00000000E+00  0.00000000E+00  0.00000000E+00
  0.00000000E+00  0.00000000E+00  0.00000000E+00
  0.00000000E+00  0.00000000E+00  0.00000000E+00
  0.00000000E+00  0.00000000E+00  0.00000000E+00
  0.00000000E+00  0.00000000E+00  0.00000000E+00
  0.00000000E+00  0.00000000E+00  0.00000000E+00
  0.00000000E+00  0.00000000E+00  0.00000000E+00
  0.00000000E+00  0.00000000E+00  0.00000000E+00
  0.00000000E+00  0.00000000E+00  0.00000000E+00
  0.00000000E+00  0.00000000E+00  0.00000000E+00
  0.00000000E+00  0.00000000E+00  0.00000000E+00
  0.00000000E+00  0.00000000E+00  0.00000000E+00
  0.00000000E+00  0.00000000E+00  0.00000000E+00
  0.00000000E+00  0.00000000E+00  0.00000000E+00
  0.00000000E+00  0.00000000E+00  0.00000000E+00
  0.00000000E+00  0.00000000E+00  0.00000000E+00
  0.00000000E+00  0.00000000E+00  0.00000000E+00
  0.00000000E+00  0.00000000E+00  0.00000000E+00
  0.00000000E+00  0.00000000E+00  0.00000000E+00
  0.00000000E+00  0.00000000E+00  0.00000000E+00
  0.00000000E+00  0.00000000E+00  0.00000000E+00
  0.00000000E+00  0.00000000E+00  0.00000000E+00
  0.00000000E+00  0.00000000E+00  0.00000000E+00
  0.00000000E+00  0.00000000E+00  0.00000000E+00
  0.00000000E+00  0.00000000E+00  0.00000000E+00
  0.00000000E+00  0.00000000E+00  0.00000000E+00
  0.00000000E+00  0.00000000E+00  0.00000000E+00
  0.00000000E+00  0.00000000E+00  0.00000000E+00
  0.00000000E+00  0.00000000E+00  0.00000000E+00
  0.00000000E+00  0.00000000E+00  0.00000000E+00
  0.00000000E+00  0.00000000E+00  0.00000000E+00
  0.00000000E+00  0.00000000E+00  0.00000000E+00
  0.00000000E+00  0.00000000E+00  0.00000000E+00
  0.00000000E+00  0.00000000E+00  0.00000000E+00
  0.00000000E+00  0.00000000E+00  0.00000000E+00
  0.00000000E+00  0.00000000E+00  0.00000000E+00
  0.00000000E+00  0.00000000E+00  0.00000000E+00
  0.00000000E+00  0.00000000E+00  0.00000000E+00
  0.00000000E+00  0.00000000E+00  0.00000000E+00
  0.00000000E+00  0.00000000E+00  0.00000000E+00
  0.00000000E+00  0.00000000E+00  0.00000000E+00
  0.00000000E+00  0.00000000E+00  0.00000000E+00
  0.00000000E+00  0.00000000E+00  0.00000000E+00
  0.00000000E+00  0.00000000E+00  0.00000000E+00
  0.00000000E+00  0.00000000E+00  0.00000000E+00
  0.00000000E+00  0.00000000E+00  0.00000000E+00
  0.00000000E+00  0.00000000E+00  0.00000000E+00
  0.00000000E+00  0.00000000E+00  0.00000000E+00
  0.00000000E+00  0.00000000E+00  0.00000000E+00
  0.00000000E+00  0.00000000E+00  0.00000000E+00
  0.00000000E+00  0.00000000E+00  0.00000000E+00
  0.00000000E+00  0.00000000E+00  0.00000000E+00
  0.00000000E+00  0.00000000E+00  0.00000000E+00
  0.00000000E+00  0.00000000E+00  0.00000000E+00
  0.00000000E+00  0.00000000E+00  0.00000000E+00
  0.00000000E+00  0.00000000E+00  0.00000000E+00
  0.00000000E+00  0.00000000E+00  0.00000000E+00
