C4                                      
   1.00000000000000     
    14.8063199999999995    0.0000000000000000    0.0000000000000000
    -7.4031599999999997   12.8226492600000004    0.0000000000000000
     0.0000000000000000    0.0000000000000000   18.0000000000000000
   C    Ag   Au
    72     2     2
Direct
  0.0556027789102203  0.1110883738549830  0.3622670202740181
  0.0000307393822254  0.9999778179241048  0.3628540294690623
  0.0555289685936273  0.2776964032747387  0.3626066475770315
  0.0000160280363346  0.1666280867870285  0.3627488654913549
  0.0555700040011260  0.4444498047624563  0.3633585171217533
  0.0000022410855891  0.3333032336353980  0.3633450506870304
  0.0556001056805187  0.6111191591758498  0.3636100322598850
  0.0000218700546384  0.4999901784734817  0.3637217553563445
  0.0555577287228388  0.7777487933120852  0.3633883134936156
  0.0000213282209032  0.6666783388390769  0.3635931405436708
  0.0555693542682931  0.9444458255629655  0.3628658921770551
  0.9999914137486456  0.8333155210577843  0.3632493076040504
  0.2221943257187178  0.1110356908275634  0.3614083025207151
  0.1666806128490421  0.0000031813530939  0.3624212818802803
  0.2222410520496325  0.2776838666314987  0.3600628847975642
  0.1666467213659431  0.1665985552352396  0.3611032658462818
  0.2223050527441615  0.4444980048997635  0.3614002622448496
  0.1666876639152761  0.3332386485207834  0.3613539234264849
  0.2222711288373844  0.6111124769916927  0.3628276535767583
  0.1666969896949340  0.5000526626585611  0.3626677754822722
  0.2222437597683466  0.7777777799579937  0.3634029108461831
  0.1666870548221198  0.6666554852234015  0.3633710399600290
  0.2222510019810073  0.9444542859543574  0.3629113654733160
  0.1666936608997958  0.8333185190700831  0.3633290883945079
  0.3888554061718708  0.1111002873617082  0.3622921368066159
  0.3333294349849751  0.9999875395783206  0.3629296597303338
  0.3888182543474699  0.2776939114941470  0.3600943146313043
  0.3333115457108278  0.1666060970195531  0.3611128664184093
  0.3888826056376686  0.4444094238552836  0.3590313722003273
  0.3333416363956800  0.3333191620360338  0.3590451529577336
  0.3889182911426587  0.6111279811473977  0.3610216871647722
  0.3334102767333675  0.5000423350699705  0.3600772769924987
  0.3889288227911294  0.7777555896319726  0.3628795524607611
  0.3333890396046186  0.6666398908376152  0.3622859321185885
  0.3888947033826184  0.9444168815217608  0.3633203433978807
  0.3333737484466184  0.8333310134871255  0.3633137715616286
  0.5555637843605155  0.1110901503031698  0.3633377046460993
  0.5000165677288493  0.9999750410201926  0.3633821508263750
  0.5555260911426245  0.2776969225822583  0.3625836933388698
  0.4999782498674321  0.1666359864502738  0.3627772769469289
  0.5555412168051745  0.4444994331819316  0.3613298308491437
  0.4999158730857971  0.3332437888793223  0.3613528581559393
  0.5555784886636559  0.6111322659140654  0.3608970573909005
  0.4999841213134388  0.5000466841635216  0.3600133660286602
  0.5555367752555753  0.7777253759418628  0.3621810342337355
  0.5000258126485804  0.6666897387568369  0.3611841954286703
  0.5555548394902843  0.9444287055120810  0.3632194658103245
  0.4999940854976543  0.8332940415510990  0.3627763341918282
  0.7222222846450350  0.1110743240671539  0.3635464234099786
  0.6666850471636394  0.0000047529787039  0.3632597636632866
  0.7222273268682642  0.2777710364933057  0.3636820541043306
  0.6666524747322526  0.1666312378240562  0.3635850301527555
  0.7222317542486820  0.4444529469781955  0.3632346227547956
  0.6666605732975057  0.3333087405927913  0.3632661880234096
  0.7222044814209809  0.6111091746414985  0.3626231478774784
  0.6667025458699172  0.5000552481401570  0.3625130584336915
  0.7221996281300136  0.7777575099165404  0.3626540424852891
  0.6666182964047920  0.6666378494737302  0.3620591115827594
  0.7222410108204116  0.9444278332869729  0.3630982621506149
  0.6666553252466798  0.8332897417001064  0.3626411490235242
  0.8888886971779897  0.1110880181374512  0.3632492184832330
  0.8333272520599309  0.9999678647259032  0.3632111358179699
  0.8889110939660725  0.2777672351160305  0.3637176557194266
  0.8333511992992371  0.1666351993665316  0.3635385406423666
  0.8888930748098431  0.4444228842487163  0.3638524713263251
  0.8333633854899034  0.3333518134963356  0.3638607991076199
  0.8888843812688592  0.6111242371822243  0.3635322945165029
  0.8333282898622087  0.4999906618924257  0.3636429435473545
  0.8889029741186292  0.7777729056403970  0.3632306116675323
  0.8333336826136843  0.6666552309950262  0.3632009416296142
  0.8889026360247669  0.9444110123071070  0.3631498978469594
  0.8333369967612470  0.8333295532357994  0.3631005154207472
  0.2724408694485732  0.3939868563536422  0.5439210022463143
  0.4537347895097312  0.3928466985285866  0.5439316901154072
  0.2717428197506777  0.2122936186598849  0.5495207111720291
  0.4544316424300519  0.5744599927392642  0.5498040162861741
 
  0.00000000E+00  0.00000000E+00  0.00000000E+00
  0.00000000E+00  0.00000000E+00  0.00000000E+00
  0.00000000E+00  0.00000000E+00  0.00000000E+00
  0.00000000E+00  0.00000000E+00  0.00000000E+00
  0.00000000E+00  0.00000000E+00  0.00000000E+00
  0.00000000E+00  0.00000000E+00  0.00000000E+00
  0.00000000E+00  0.00000000E+00  0.00000000E+00
  0.00000000E+00  0.00000000E+00  0.00000000E+00
  0.00000000E+00  0.00000000E+00  0.00000000E+00
  0.00000000E+00  0.00000000E+00  0.00000000E+00
  0.00000000E+00  0.00000000E+00  0.00000000E+00
  0.00000000E+00  0.00000000E+00  0.00000000E+00
  0.00000000E+00  0.00000000E+00  0.00000000E+00
  0.00000000E+00  0.00000000E+00  0.00000000E+00
  0.00000000E+00  0.00000000E+00  0.00000000E+00
  0.00000000E+00  0.00000000E+00  0.00000000E+00
  0.00000000E+00  0.00000000E+00  0.00000000E+00
  0.00000000E+00  0.00000000E+00  0.00000000E+00
  0.00000000E+00  0.00000000E+00  0.00000000E+00
  0.00000000E+00  0.00000000E+00  0.00000000E+00
  0.00000000E+00  0.00000000E+00  0.00000000E+00
  0.00000000E+00  0.00000000E+00  0.00000000E+00
  0.00000000E+00  0.00000000E+00  0.00000000E+00
  0.00000000E+00  0.00000000E+00  0.00000000E+00
  0.00000000E+00  0.00000000E+00  0.00000000E+00
  0.00000000E+00  0.00000000E+00  0.00000000E+00
  0.00000000E+00  0.00000000E+00  0.00000000E+00
  0.00000000E+00  0.00000000E+00  0.00000000E+00
  0.00000000E+00  0.00000000E+00  0.00000000E+00
  0.00000000E+00  0.00000000E+00  0.00000000E+00
  0.00000000E+00  0.00000000E+00  0.00000000E+00
  0.00000000E+00  0.00000000E+00  0.00000000E+00
  0.00000000E+00  0.00000000E+00  0.00000000E+00
  0.00000000E+00  0.00000000E+00  0.00000000E+00
  0.00000000E+00  0.00000000E+00  0.00000000E+00
  0.00000000E+00  0.00000000E+00  0.00000000E+00
  0.00000000E+00  0.00000000E+00  0.00000000E+00
  0.00000000E+00  0.00000000E+00  0.00000000E+00
  0.00000000E+00  0.00000000E+00  0.00000000E+00
  0.00000000E+00  0.00000000E+00  0.00000000E+00
  0.00000000E+00  0.00000000E+00  0.00000000E+00
  0.00000000E+00  0.00000000E+00  0.00000000E+00
  0.00000000E+00  0.00000000E+00  0.00000000E+00
  0.00000000E+00  0.00000000E+00  0.00000000E+00
  0.00000000E+00  0.00000000E+00  0.00000000E+00
  0.00000000E+00  0.00000000E+00  0.00000000E+00
  0.00000000E+00  0.00000000E+00  0.00000000E+00
  0.00000000E+00  0.00000000E+00  0.00000000E+00
  0.00000000E+00  0.00000000E+00  0.00000000E+00
  0.00000000E+00  0.00000000E+00  0.00000000E+00
  0.00000000E+00  0.00000000E+00  0.00000000E+00
  0.00000000E+00  0.00000000E+00  0.00000000E+00
  0.00000000E+00  0.00000000E+00  0.00000000E+00
  0.00000000E+00  0.00000000E+00  0.00000000E+00
  0.00000000E+00  0.00000000E+00  0.00000000E+00
  0.00000000E+00  0.00000000E+00  0.00000000E+00
  0.00000000E+00  0.00000000E+00  0.00000000E+00
  0.00000000E+00  0.00000000E+00  0.00000000E+00
  0.00000000E+00  0.00000000E+00  0.00000000E+00
  0.00000000E+00  0.00000000E+00  0.00000000E+00
  0.00000000E+00  0.00000000E+00  0.00000000E+00
  0.00000000E+00  0.00000000E+00  0.00000000E+00
  0.00000000E+00  0.00000000E+00  0.00000000E+00
  0.00000000E+00  0.00000000E+00  0.00000000E+00
  0.00000000E+00  0.00000000E+00  0.00000000E+00
  0.00000000E+00  0.00000000E+00  0.00000000E+00
  0.00000000E+00  0.00000000E+00  0.00000000E+00
  0.00000000E+00  0.00000000E+00  0.00000000E+00
  0.00000000E+00  0.00000000E+00  0.00000000E+00
  0.00000000E+00  0.00000000E+00  0.00000000E+00
  0.00000000E+00  0.00000000E+00  0.00000000E+00
  0.00000000E+00  0.00000000E+00  0.00000000E+00
  0.00000000E+00  0.00000000E+00  0.00000000E+00
  0.00000000E+00  0.00000000E+00  0.00000000E+00
  0.00000000E+00  0.00000000E+00  0.00000000E+00
  0.00000000E+00  0.00000000E+00  0.00000000E+00
