C4                                      
   1.00000000000000     
    14.8063199999999995    0.0000000000000000    0.0000000000000000
    -7.4031599999999997   12.8226492600000004    0.0000000000000000
     0.0000000000000000    0.0000000000000000   18.0000000000000000
   C    Ag
    72     2
Direct
  0.0554203600609782  0.1110008776674221  0.3640256267021584
  0.9999377606715072  0.9999242518129918  0.3637084408573230
  0.0554064589665799  0.2777312459334382  0.3639915824098381
  0.9999298821309281  0.1666214321962016  0.3639115239991710
  0.0555169053291920  0.4444339183421349  0.3635611478960001
  0.9999289225829244  0.3333285719746257  0.3636081073142847
  0.0555425174911761  0.6111047021162577  0.3633751855229050
  0.9999855933680664  0.4999964975146725  0.3633833292745052
  0.0555400742904553  0.7777608131036189  0.3634290507260545
  0.9999877650569573  0.6666556823585310  0.3633857952049695
  0.0555236255950646  0.9444072518634528  0.3636776930610495
  0.9999853739581184  0.8333131027890417  0.3635012901881822
  0.2221645381858508  0.1110028312819367  0.3643932825683862
  0.1666360781191614  0.9999422276158327  0.3638551747534393
  0.2217063876614347  0.2775206167826028  0.3656542452347225
  0.1664557262090227  0.1664287396806188  0.3646457576011528
  0.2221559797098820  0.4444801074864912  0.3643456051118221
  0.1664419641312662  0.3333488577886641  0.3646186576931640
  0.2222082894407791  0.6111275082844898  0.3635876076811044
  0.1666305407851283  0.5000137160856184  0.3637801876036306
  0.2222164300727982  0.7777722135054006  0.3633714685768226
  0.1666550325465934  0.6666670831570940  0.3633951747221786
  0.2222139045076972  0.9444054929671495  0.3636342017232934
  0.1666542941488487  0.8333134003687448  0.3634336532789106
  0.3889104777071921  0.1109971256673177  0.3639970608456835
  0.3333208282829005  0.9999203369780716  0.3636365646750193
  0.3891332631271709  0.2775115703355269  0.3656428124411946
  0.3333024721039024  0.1664215343614757  0.3646487866231141
  0.3891328535443535  0.4449461945398241  0.3656221084838620
  0.3333281436367486  0.3333296428246939  0.3670628048899545
  0.3889063550534075  0.6112338654738849  0.3640013772370594
  0.3332964009552697  0.5002002469139271  0.3645987764412482
  0.3888831233780294  0.7777998107433035  0.3634696422772166
  0.3333149849929598  0.6667191637524397  0.3636474943946126
  0.3888902401304577  0.9444098405263830  0.3634520663229566
  0.3333196151919751  0.8333250314298724  0.3633876235577986
  0.5555625132314006  0.1110837958935846  0.3635906404372591
  0.4999966840366383  0.9999792686246280  0.3634830839658605
  0.5556458543286524  0.2777339448897891  0.3640078590594200
  0.5000228738604875  0.1666264080813207  0.3638953748735645
  0.5556432088118086  0.4444859751407719  0.3643522054894675
  0.5002295257782450  0.3333509916465189  0.3646152787813506
  0.5556497184510505  0.6112364424651773  0.3640315469224760
  0.5002306306219353  0.5002068706549210  0.3646094207448911
  0.5555570669896568  0.7777923988081952  0.3636653914964398
  0.5000200873428895  0.6667164525005802  0.3639455426608933
  0.5555533373896537  0.9444340519772396  0.3634531297478318
  0.4999926338954737  0.8333337381891752  0.3635090009103195
  0.7222099412575673  0.1110900946268387  0.3634520451966807
  0.6666601991824024  0.9999856612672033  0.3634758677480363
  0.7222377944931466  0.2777583420842049  0.3634805384806867
  0.6666694052009206  0.1666517009114656  0.3634908038798912
  0.7222316303883645  0.4444271562381843  0.3636366278692833
  0.6667243345211915  0.3333259003115643  0.3636555761373188
  0.7222384022598121  0.6111251451441859  0.3636875108924897
  0.6667025419155124  0.5000128927236887  0.3638448277404507
  0.7222394078576997  0.7777996532689571  0.3635884735231443
  0.6667282260604850  0.6667191160861350  0.3637211815428998
  0.7222075071114986  0.9444260195395557  0.3635225699289109
  0.6666663854044970  0.8333309228055299  0.3635877926093940
  0.8888464319850442  0.1110752152928285  0.3636214225079897
  0.8333105751255303  0.9999671143790891  0.3635580539988368
  0.8888447429926458  0.2777559305985875  0.3634506229552557
  0.8333128303533286  0.1666496785025160  0.3634930285853528
  0.8888744672058237  0.4444292690141154  0.3633669361333460
  0.8333277005984030  0.3333288597455493  0.3633943392242642
  0.8888790600247560  0.6110956803617427  0.3634441594073010
  0.8333298355296321  0.4999860104849034  0.3634359943990191
  0.8888764350596858  0.7777639081256496  0.3635036179134161
  0.8333351176942969  0.6666607299840663  0.3635293465513882
  0.8888517636492281  0.9444041104289909  0.3635608550592480
  0.8333307864023709  0.8333218449918576  0.3635282201574128
  0.3338664316475004  0.3338979172492316  0.6530184109671495
  0.3334796682160572  0.3335913407377120  0.5107851136061115
 
  0.00000000E+00  0.00000000E+00  0.00000000E+00
  0.00000000E+00  0.00000000E+00  0.00000000E+00
  0.00000000E+00  0.00000000E+00  0.00000000E+00
  0.00000000E+00  0.00000000E+00  0.00000000E+00
  0.00000000E+00  0.00000000E+00  0.00000000E+00
  0.00000000E+00  0.00000000E+00  0.00000000E+00
  0.00000000E+00  0.00000000E+00  0.00000000E+00
  0.00000000E+00  0.00000000E+00  0.00000000E+00
  0.00000000E+00  0.00000000E+00  0.00000000E+00
  0.00000000E+00  0.00000000E+00  0.00000000E+00
  0.00000000E+00  0.00000000E+00  0.00000000E+00
  0.00000000E+00  0.00000000E+00  0.00000000E+00
  0.00000000E+00  0.00000000E+00  0.00000000E+00
  0.00000000E+00  0.00000000E+00  0.00000000E+00
  0.00000000E+00  0.00000000E+00  0.00000000E+00
  0.00000000E+00  0.00000000E+00  0.00000000E+00
  0.00000000E+00  0.00000000E+00  0.00000000E+00
  0.00000000E+00  0.00000000E+00  0.00000000E+00
  0.00000000E+00  0.00000000E+00  0.00000000E+00
  0.00000000E+00  0.00000000E+00  0.00000000E+00
  0.00000000E+00  0.00000000E+00  0.00000000E+00
  0.00000000E+00  0.00000000E+00  0.00000000E+00
  0.00000000E+00  0.00000000E+00  0.00000000E+00
  0.00000000E+00  0.00000000E+00  0.00000000E+00
  0.00000000E+00  0.00000000E+00  0.00000000E+00
  0.00000000E+00  0.00000000E+00  0.00000000E+00
  0.00000000E+00  0.00000000E+00  0.00000000E+00
  0.00000000E+00  0.00000000E+00  0.00000000E+00
  0.00000000E+00  0.00000000E+00  0.00000000E+00
  0.00000000E+00  0.00000000E+00  0.00000000E+00
  0.00000000E+00  0.00000000E+00  0.00000000E+00
  0.00000000E+00  0.00000000E+00  0.00000000E+00
  0.00000000E+00  0.00000000E+00  0.00000000E+00
  0.00000000E+00  0.00000000E+00  0.00000000E+00
  0.00000000E+00  0.00000000E+00  0.00000000E+00
  0.00000000E+00  0.00000000E+00  0.00000000E+00
  0.00000000E+00  0.00000000E+00  0.00000000E+00
  0.00000000E+00  0.00000000E+00  0.00000000E+00
  0.00000000E+00  0.00000000E+00  0.00000000E+00
  0.00000000E+00  0.00000000E+00  0.00000000E+00
  0.00000000E+00  0.00000000E+00  0.00000000E+00
  0.00000000E+00  0.00000000E+00  0.00000000E+00
  0.00000000E+00  0.00000000E+00  0.00000000E+00
  0.00000000E+00  0.00000000E+00  0.00000000E+00
  0.00000000E+00  0.00000000E+00  0.00000000E+00
  0.00000000E+00  0.00000000E+00  0.00000000E+00
  0.00000000E+00  0.00000000E+00  0.00000000E+00
  0.00000000E+00  0.00000000E+00  0.00000000E+00
  0.00000000E+00  0.00000000E+00  0.00000000E+00
  0.00000000E+00  0.00000000E+00  0.00000000E+00
  0.00000000E+00  0.00000000E+00  0.00000000E+00
  0.00000000E+00  0.00000000E+00  0.00000000E+00
  0.00000000E+00  0.00000000E+00  0.00000000E+00
  0.00000000E+00  0.00000000E+00  0.00000000E+00
  0.00000000E+00  0.00000000E+00  0.00000000E+00
  0.00000000E+00  0.00000000E+00  0.00000000E+00
  0.00000000E+00  0.00000000E+00  0.00000000E+00
  0.00000000E+00  0.00000000E+00  0.00000000E+00
  0.00000000E+00  0.00000000E+00  0.00000000E+00
  0.00000000E+00  0.00000000E+00  0.00000000E+00
  0.00000000E+00  0.00000000E+00  0.00000000E+00
  0.00000000E+00  0.00000000E+00  0.00000000E+00
  0.00000000E+00  0.00000000E+00  0.00000000E+00
  0.00000000E+00  0.00000000E+00  0.00000000E+00
  0.00000000E+00  0.00000000E+00  0.00000000E+00
  0.00000000E+00  0.00000000E+00  0.00000000E+00
  0.00000000E+00  0.00000000E+00  0.00000000E+00
  0.00000000E+00  0.00000000E+00  0.00000000E+00
  0.00000000E+00  0.00000000E+00  0.00000000E+00
  0.00000000E+00  0.00000000E+00  0.00000000E+00
  0.00000000E+00  0.00000000E+00  0.00000000E+00
  0.00000000E+00  0.00000000E+00  0.00000000E+00
  0.00000000E+00  0.00000000E+00  0.00000000E+00
  0.00000000E+00  0.00000000E+00  0.00000000E+00
