Comment                                 
   1.00000000000000     
    20.0000000000000000    0.0000000000000000    0.0000000000000000
     0.0000000000000000   20.0000000000000000    0.0000000000000000
     0.0000000000000000    0.0000000000000000   20.0000000000000000
   Pt   Au
     3     1
Direct
  0.3918557041551530  0.3878012162519847  0.4249999999999972
  0.5116190956891704  0.3651512996402420  0.4249999999999972
  0.4723803013933414  0.4810035223860120  0.4249999999999972
  0.4369423987623375  0.5989384617217561  0.4249999999999972
 
  0.00000000E+00  0.00000000E+00  0.00000000E+00
  0.00000000E+00  0.00000000E+00  0.00000000E+00
  0.00000000E+00  0.00000000E+00  0.00000000E+00
  0.00000000E+00  0.00000000E+00  0.00000000E+00
