POSCAR                                  
   1.00000000000000     
    20.0000000000000000    0.0000000000000000    0.0000000000000000
     0.0000000000000000   20.0000000000000000    0.0000000000000000
     0.0000000000000000    0.0000000000000000   20.0000000000000000
   Ni   Au
     2     2
Direct
  0.4285450811746328  0.3157647771102288  0.5447690087154746
  0.3682516600311938  0.3860751108244522  0.4908691491839038
  0.3457928457171371  0.2664628477359666  0.4666089636608545
  0.4507937130770358  0.4353974643293553  0.5692662284397704
 
  0.00000000E+00  0.00000000E+00  0.00000000E+00
  0.00000000E+00  0.00000000E+00  0.00000000E+00
  0.00000000E+00  0.00000000E+00  0.00000000E+00
  0.00000000E+00  0.00000000E+00  0.00000000E+00
