C4                                      
   1.00000000000000     
    14.8063199999999995    0.0000000000000000    0.0000000000000000
    -7.4031599999999997   12.8226492600000004    0.0000000000000000
     0.0000000000000000    0.0000000000000000   18.0000000000000000
   C    Pd   Au
    72     2     1
Direct
  0.0579660773291693  0.1077167943018509  0.3695063258714342
  0.0025683517744994  0.9968758493295695  0.3662672357215087
  0.0568506091187970  0.2741648714895391  0.3717289927802909
  0.0022445990841149  0.1634408411651549  0.3691878791351968
  0.0577036016312178  0.4415621634581512  0.3673967902969082
  0.0019993718660274  0.3301003104339628  0.3672322291394110
  0.0581133860531651  0.6082249490761882  0.3643885964347646
  0.0024489292892085  0.4971034573846396  0.3647654956529465
  0.0581588519845226  0.7747999145013011  0.3636064191632116
  0.0025619049957939  0.6637189219818111  0.3635832095681693
  0.0581178749640259  0.9413178180392023  0.3651998790624802
  0.0026052660899083  0.8302910764476721  0.3639850760466103
  0.2246418081756332  0.1074823336389983  0.3682903680308840
  0.1692281145625714  0.9967628672007791  0.3654262386660392
  0.2246189520829063  0.2735329175879144  0.3804036807517477
  0.1686777036350691  0.1623209478829182  0.3724494699596477
  0.2251393383918554  0.4425778423405546  0.3764895199101019
  0.1680015351743691  0.3301461648481379  0.3799396657193270
  0.2249041194183690  0.6087144640648958  0.3671205995419839
  0.1688108172684437  0.4977979413946017  0.3705200916338924
  0.2249215502252184  0.7749586454415223  0.3639101867833716
  0.1692475986581385  0.6639252212048419  0.3648913664946392
  0.2248930464751808  0.9413056097621748  0.3642006616595594
  0.1692938758313645  0.8303803301781798  0.3636523429564136
  0.3916357745594610  0.1079277046365874  0.3656825963962902
  0.3359825786308974  0.9968218671824332  0.3643067015273402
  0.3923168955359913  0.2742793816718532  0.3715462404950287
  0.3361028765926264  0.1631891388664926  0.3685122252537809
  0.3927526785502380  0.4428541439989218  0.3721235752922496
  0.3370974379311988  0.3306352206352798  0.3772509747016670
  0.3920333611901938  0.6086632644471024  0.3674630129214549
  0.3373877306517272  0.4982289328307630  0.3717831261344671
  0.3915700299585581  0.7748063543005941  0.3643998654783331
  0.3361189045008786  0.6640437346259702  0.3662672323728486
  0.3915622352831534  0.9414075359504182  0.3636598931297499
  0.3359587339773995  0.8303760283704520  0.3638562807290953
  0.5582504853036809  0.1080374285040975  0.3637528797115834
  0.5027069480925235  0.9970034514300323  0.3634866373404506
  0.5584516942386344  0.2747149283766248  0.3655872013365027
  0.5027512880790539  0.1635826020475903  0.3650425796470458
  0.5585808842477533  0.4415802850994552  0.3670221758293621
  0.5032272599299930  0.3303571943517980  0.3680403594409469
  0.5585774355244979  0.6085120005782514  0.3658905466955105
  0.5031978187887560  0.4975053765146100  0.3679785106499480
  0.5584317223711608  0.7750441689099077  0.3641725655083903
  0.5030419485522586  0.6640390108455563  0.3656746224350584
  0.5582597258979547  0.9414667504331788  0.3633237852864895
  0.5027768126004943  0.8304368571214624  0.3638391145032855
  0.7248268240441575  0.1080737438012420  0.3634730373564281
  0.6693125722495665  0.9969977698781776  0.3633885837809174
  0.7249005098484318  0.2747556865780041  0.3634290298700762
  0.6693297760212005  0.1636243803873683  0.3633860364055508
  0.7249045605335951  0.4414194280926083  0.3641098381010792
  0.6694777675687646  0.3303815189958854  0.3641665624137715
  0.7249757248088144  0.6082415515070210  0.3642887820916414
  0.6693423125246625  0.4970341925292630  0.3649478003881086
  0.7250185446655522  0.7749310968877126  0.3639159916907033
  0.6695792690027034  0.6638887230814561  0.3644999215873312
  0.7249343292771968  0.9415052556812356  0.3636753844207163
  0.6694706873768581  0.8304803366430065  0.3637558182020868
  0.8914108952488178  0.1080363636687878  0.3657951394535957
  0.8359336229991996  0.9969397870649317  0.3646424320790658
  0.8912836607944570  0.2746875762897574  0.3645079158957856
  0.8358539646910330  0.1635791219152694  0.3644816385823830
  0.8913324247396943  0.4414420290443744  0.3636635051773141
  0.8358270555019942  0.3303514114589134  0.3635180862903908
  0.8915309445966102  0.6081712417491332  0.3634947824983783
  0.8359322122822732  0.4970349522793640  0.3635063819648039
  0.8915290414226718  0.7747739748446136  0.3638162973309278
  0.8359998979052392  0.6637227634391394  0.3636623068194567
  0.8914685898127459  0.9413921974399173  0.3648410950632552
  0.8360404526872784  0.8303922127008576  0.3639900343797819
  0.2941746743078966  0.3014733955276796  0.4958513551650157
  0.1951745712262110  0.4015717216666062  0.4951774194495329
  0.2376197987935100  0.3454481419638782  0.6234078397443312
 
  0.00000000E+00  0.00000000E+00  0.00000000E+00
  0.00000000E+00  0.00000000E+00  0.00000000E+00
  0.00000000E+00  0.00000000E+00  0.00000000E+00
  0.00000000E+00  0.00000000E+00  0.00000000E+00
  0.00000000E+00  0.00000000E+00  0.00000000E+00
  0.00000000E+00  0.00000000E+00  0.00000000E+00
  0.00000000E+00  0.00000000E+00  0.00000000E+00
  0.00000000E+00  0.00000000E+00  0.00000000E+00
  0.00000000E+00  0.00000000E+00  0.00000000E+00
  0.00000000E+00  0.00000000E+00  0.00000000E+00
  0.00000000E+00  0.00000000E+00  0.00000000E+00
  0.00000000E+00  0.00000000E+00  0.00000000E+00
  0.00000000E+00  0.00000000E+00  0.00000000E+00
  0.00000000E+00  0.00000000E+00  0.00000000E+00
  0.00000000E+00  0.00000000E+00  0.00000000E+00
  0.00000000E+00  0.00000000E+00  0.00000000E+00
  0.00000000E+00  0.00000000E+00  0.00000000E+00
  0.00000000E+00  0.00000000E+00  0.00000000E+00
  0.00000000E+00  0.00000000E+00  0.00000000E+00
  0.00000000E+00  0.00000000E+00  0.00000000E+00
  0.00000000E+00  0.00000000E+00  0.00000000E+00
  0.00000000E+00  0.00000000E+00  0.00000000E+00
  0.00000000E+00  0.00000000E+00  0.00000000E+00
  0.00000000E+00  0.00000000E+00  0.00000000E+00
  0.00000000E+00  0.00000000E+00  0.00000000E+00
  0.00000000E+00  0.00000000E+00  0.00000000E+00
  0.00000000E+00  0.00000000E+00  0.00000000E+00
  0.00000000E+00  0.00000000E+00  0.00000000E+00
  0.00000000E+00  0.00000000E+00  0.00000000E+00
  0.00000000E+00  0.00000000E+00  0.00000000E+00
  0.00000000E+00  0.00000000E+00  0.00000000E+00
  0.00000000E+00  0.00000000E+00  0.00000000E+00
  0.00000000E+00  0.00000000E+00  0.00000000E+00
  0.00000000E+00  0.00000000E+00  0.00000000E+00
  0.00000000E+00  0.00000000E+00  0.00000000E+00
  0.00000000E+00  0.00000000E+00  0.00000000E+00
  0.00000000E+00  0.00000000E+00  0.00000000E+00
  0.00000000E+00  0.00000000E+00  0.00000000E+00
  0.00000000E+00  0.00000000E+00  0.00000000E+00
  0.00000000E+00  0.00000000E+00  0.00000000E+00
  0.00000000E+00  0.00000000E+00  0.00000000E+00
  0.00000000E+00  0.00000000E+00  0.00000000E+00
  0.00000000E+00  0.00000000E+00  0.00000000E+00
  0.00000000E+00  0.00000000E+00  0.00000000E+00
  0.00000000E+00  0.00000000E+00  0.00000000E+00
  0.00000000E+00  0.00000000E+00  0.00000000E+00
  0.00000000E+00  0.00000000E+00  0.00000000E+00
  0.00000000E+00  0.00000000E+00  0.00000000E+00
  0.00000000E+00  0.00000000E+00  0.00000000E+00
  0.00000000E+00  0.00000000E+00  0.00000000E+00
  0.00000000E+00  0.00000000E+00  0.00000000E+00
  0.00000000E+00  0.00000000E+00  0.00000000E+00
  0.00000000E+00  0.00000000E+00  0.00000000E+00
  0.00000000E+00  0.00000000E+00  0.00000000E+00
  0.00000000E+00  0.00000000E+00  0.00000000E+00
  0.00000000E+00  0.00000000E+00  0.00000000E+00
  0.00000000E+00  0.00000000E+00  0.00000000E+00
  0.00000000E+00  0.00000000E+00  0.00000000E+00
  0.00000000E+00  0.00000000E+00  0.00000000E+00
  0.00000000E+00  0.00000000E+00  0.00000000E+00
  0.00000000E+00  0.00000000E+00  0.00000000E+00
  0.00000000E+00  0.00000000E+00  0.00000000E+00
  0.00000000E+00  0.00000000E+00  0.00000000E+00
  0.00000000E+00  0.00000000E+00  0.00000000E+00
  0.00000000E+00  0.00000000E+00  0.00000000E+00
  0.00000000E+00  0.00000000E+00  0.00000000E+00
  0.00000000E+00  0.00000000E+00  0.00000000E+00
  0.00000000E+00  0.00000000E+00  0.00000000E+00
  0.00000000E+00  0.00000000E+00  0.00000000E+00
  0.00000000E+00  0.00000000E+00  0.00000000E+00
  0.00000000E+00  0.00000000E+00  0.00000000E+00
  0.00000000E+00  0.00000000E+00  0.00000000E+00
  0.00000000E+00  0.00000000E+00  0.00000000E+00
  0.00000000E+00  0.00000000E+00  0.00000000E+00
  0.00000000E+00  0.00000000E+00  0.00000000E+00
