C4                                      
   1.00000000000000     
    14.8063199999999995    0.0000000000000000    0.0000000000000000
    -7.4031599999999997   12.8226492600000004    0.0000000000000000
     0.0000000000000000    0.0000000000000000   17.0000000000000000
   C    Ag   Au
    72     1     2
Direct
  0.0554809864562102  0.1110227334816258  0.3840268740479118
  0.0000337992890564  0.9999954226254530  0.3840043284563492
  0.0554329903701571  0.2776713676057270  0.3838213822934904
  0.9999440193510694  0.1665904597953016  0.3839807591889794
  0.0554682420328945  0.4443639983593002  0.3833462574765960
  0.9999404390183457  0.3332644375140035  0.3836163936402386
  0.0555270528572862  0.6110437868014458  0.3831889894197360
  0.9999904402585855  0.4999719761325636  0.3832386843478588
  0.0555610011699201  0.7777454785120028  0.3835353933000860
  0.0000398477422863  0.6666432342335895  0.3832832575275802
  0.0555704258729719  0.9444301195000548  0.3839301867046601
  0.0000719331311672  0.8333425792524025  0.3837718070041021
  0.2221539349229715  0.1110287447283227  0.3842355634710373
  0.1666586749065999  0.9999657495452681  0.3840250451118905
  0.2219663182071443  0.2775433436913630  0.3842601873749274
  0.1665478808266911  0.1665108645639037  0.3841455143054873
  0.2219636524242716  0.4443049218594979  0.3837423981596402
  0.1665171837949799  0.3332055390781647  0.3839659100727744
  0.2220813940911412  0.6110511006481829  0.3833703511252864
  0.1665223594444427  0.4999481436962938  0.3833748204267451
  0.2221935495533671  0.7777458902789576  0.3835496945834649
  0.1666167327566228  0.6666432309441674  0.3832947176002719
  0.2222048198242703  0.9444071868554929  0.3839306230231472
  0.1666655708693554  0.8333286249578933  0.3836586022470243
  0.3888696682021902  0.1110273126740253  0.3842431505147204
  0.3333100693732902  0.9999648245518742  0.3840225211936996
  0.3887702888882885  0.2775756611513387  0.3849847237153128
  0.3332861536811720  0.1665813195812120  0.3844922823141204
  0.3879869984264417  0.4438574173396859  0.3859377965452566
  0.3329833714713857  0.3329511365494895  0.3849534072998253
  0.3886033721557425  0.6111212155205905  0.3845298207727694
  0.3329446374079410  0.4998553592238295  0.3844322879802888
  0.3888203127959713  0.7777985879317129  0.3839931109247061
  0.3331691693868422  0.6667031078559233  0.3838055310540014
  0.3888640982789227  0.9444264518125536  0.3839294140025373
  0.3332799299957401  0.8333392880808148  0.3837902191476914
  0.5555440741307365  0.1110246173077769  0.3840265688472186
  0.4999730492693502  0.9999951177640085  0.3840012527444898
  0.5555617355896558  0.2775456856423801  0.3843128051357496
  0.4999627328828566  0.1665085178270473  0.3841661176514464
  0.5558406171038897  0.4438674209512499  0.3860225247483484
  0.4999437346702891  0.3329533559705098  0.3850374553969118
  0.5558594859496893  0.6116500553818156  0.3885824544197902
  0.4996477431584836  0.4993516545976533  0.3885793824566193
  0.5555484258704553  0.7780554788450473  0.3850895665320948
  0.4996565980201453  0.6671394727333819  0.3860472058509785
  0.5555496333196714  0.9445058025716264  0.3841788568135343
  0.4999304209047253  0.8334663012035506  0.3843411416747031
  0.7222000787925964  0.1110522959897722  0.3840947290867760
  0.6666368998799186  0.9999878986131847  0.3843198659016664
  0.7222392145895782  0.2776735712659075  0.3838360140383443
  0.6666476046750986  0.1665896846911963  0.3839802443152394
  0.7223424171614496  0.4443120598773902  0.3838018861435302
  0.6666827793626098  0.3332122705489979  0.3840095489571027
  0.7225609526911256  0.6111475406761429  0.3844181246791649
  0.6669029520581304  0.4998840097478379  0.3845207292955379
  0.7225393763554351  0.7780634535917272  0.3850111498680207
  0.6675315494485758  0.6671488362586047  0.3859560232234074
  0.7222290924535244  0.9444447843277857  0.3845782008302834
  0.6667371549262953  0.8334417467866473  0.3850666805345497
  0.8888562262227282  0.1110510319048572  0.3840925935925270
  0.8333604219817161  0.9999862850519250  0.3843087534930802
  0.8888435811027549  0.2776846560778026  0.3837352078813510
  0.8333088449502810  0.1666164823385543  0.3840185576637083
  0.8888959492742359  0.4443657272231718  0.3833469751456207
  0.8333227989979406  0.3332631289638996  0.3836196038172091
  0.8889834847484579  0.6110567238680886  0.3833484488771361
  0.8334329109550254  0.4999558802325197  0.3833768905573223
  0.8889980002714140  0.7778063164256892  0.3839453188263988
  0.8335553097765285  0.6667150553262857  0.3837252490475649
  0.8889657300030649  0.9445044947619934  0.3841609979278999
  0.8335571007404070  0.8334651743132468  0.3842943154714575
  0.5281034821561477  0.5561403021268205  0.5255541160527386
  0.4404512459722056  0.4642901402005748  0.6606528607006013
  0.6163909403470171  0.6497825610793058  0.6599787354257742
 
  0.00000000E+00  0.00000000E+00  0.00000000E+00
  0.00000000E+00  0.00000000E+00  0.00000000E+00
  0.00000000E+00  0.00000000E+00  0.00000000E+00
  0.00000000E+00  0.00000000E+00  0.00000000E+00
  0.00000000E+00  0.00000000E+00  0.00000000E+00
  0.00000000E+00  0.00000000E+00  0.00000000E+00
  0.00000000E+00  0.00000000E+00  0.00000000E+00
  0.00000000E+00  0.00000000E+00  0.00000000E+00
  0.00000000E+00  0.00000000E+00  0.00000000E+00
  0.00000000E+00  0.00000000E+00  0.00000000E+00
  0.00000000E+00  0.00000000E+00  0.00000000E+00
  0.00000000E+00  0.00000000E+00  0.00000000E+00
  0.00000000E+00  0.00000000E+00  0.00000000E+00
  0.00000000E+00  0.00000000E+00  0.00000000E+00
  0.00000000E+00  0.00000000E+00  0.00000000E+00
  0.00000000E+00  0.00000000E+00  0.00000000E+00
  0.00000000E+00  0.00000000E+00  0.00000000E+00
  0.00000000E+00  0.00000000E+00  0.00000000E+00
  0.00000000E+00  0.00000000E+00  0.00000000E+00
  0.00000000E+00  0.00000000E+00  0.00000000E+00
  0.00000000E+00  0.00000000E+00  0.00000000E+00
  0.00000000E+00  0.00000000E+00  0.00000000E+00
  0.00000000E+00  0.00000000E+00  0.00000000E+00
  0.00000000E+00  0.00000000E+00  0.00000000E+00
  0.00000000E+00  0.00000000E+00  0.00000000E+00
  0.00000000E+00  0.00000000E+00  0.00000000E+00
  0.00000000E+00  0.00000000E+00  0.00000000E+00
  0.00000000E+00  0.00000000E+00  0.00000000E+00
  0.00000000E+00  0.00000000E+00  0.00000000E+00
  0.00000000E+00  0.00000000E+00  0.00000000E+00
  0.00000000E+00  0.00000000E+00  0.00000000E+00
  0.00000000E+00  0.00000000E+00  0.00000000E+00
  0.00000000E+00  0.00000000E+00  0.00000000E+00
  0.00000000E+00  0.00000000E+00  0.00000000E+00
  0.00000000E+00  0.00000000E+00  0.00000000E+00
  0.00000000E+00  0.00000000E+00  0.00000000E+00
  0.00000000E+00  0.00000000E+00  0.00000000E+00
  0.00000000E+00  0.00000000E+00  0.00000000E+00
  0.00000000E+00  0.00000000E+00  0.00000000E+00
  0.00000000E+00  0.00000000E+00  0.00000000E+00
  0.00000000E+00  0.00000000E+00  0.00000000E+00
  0.00000000E+00  0.00000000E+00  0.00000000E+00
  0.00000000E+00  0.00000000E+00  0.00000000E+00
  0.00000000E+00  0.00000000E+00  0.00000000E+00
  0.00000000E+00  0.00000000E+00  0.00000000E+00
  0.00000000E+00  0.00000000E+00  0.00000000E+00
  0.00000000E+00  0.00000000E+00  0.00000000E+00
  0.00000000E+00  0.00000000E+00  0.00000000E+00
  0.00000000E+00  0.00000000E+00  0.00000000E+00
  0.00000000E+00  0.00000000E+00  0.00000000E+00
  0.00000000E+00  0.00000000E+00  0.00000000E+00
  0.00000000E+00  0.00000000E+00  0.00000000E+00
  0.00000000E+00  0.00000000E+00  0.00000000E+00
  0.00000000E+00  0.00000000E+00  0.00000000E+00
  0.00000000E+00  0.00000000E+00  0.00000000E+00
  0.00000000E+00  0.00000000E+00  0.00000000E+00
  0.00000000E+00  0.00000000E+00  0.00000000E+00
  0.00000000E+00  0.00000000E+00  0.00000000E+00
  0.00000000E+00  0.00000000E+00  0.00000000E+00
  0.00000000E+00  0.00000000E+00  0.00000000E+00
  0.00000000E+00  0.00000000E+00  0.00000000E+00
  0.00000000E+00  0.00000000E+00  0.00000000E+00
  0.00000000E+00  0.00000000E+00  0.00000000E+00
  0.00000000E+00  0.00000000E+00  0.00000000E+00
  0.00000000E+00  0.00000000E+00  0.00000000E+00
  0.00000000E+00  0.00000000E+00  0.00000000E+00
  0.00000000E+00  0.00000000E+00  0.00000000E+00
  0.00000000E+00  0.00000000E+00  0.00000000E+00
  0.00000000E+00  0.00000000E+00  0.00000000E+00
  0.00000000E+00  0.00000000E+00  0.00000000E+00
  0.00000000E+00  0.00000000E+00  0.00000000E+00
  0.00000000E+00  0.00000000E+00  0.00000000E+00
  0.00000000E+00  0.00000000E+00  0.00000000E+00
  0.00000000E+00  0.00000000E+00  0.00000000E+00
  0.00000000E+00  0.00000000E+00  0.00000000E+00
