C4                                      
   1.00000000000000     
    14.8063199999999995    0.0000000000000000    0.0000000000000000
    -7.4031599999999997   12.8226492600000004    0.0000000000000000
     0.0000000000000000    0.0000000000000000   18.0000000000000000
   C    Pd
    72     2
Direct
  0.0516913026644730  0.1098933911728750  0.3651720958761615
  0.9962236240090618  0.9988008554523944  0.3620047042825121
  0.0514397641500963  0.2767866267594883  0.3652201089117497
  0.9961851068815974  0.1656331757712124  0.3641012244556947
  0.0519343788048943  0.4435620331671473  0.3618690056608571
  0.9962283678128614  0.3324771564063838  0.3625503577630411
  0.0520408068351372  0.6102427085381734  0.3598643497396523
  0.9964782946693447  0.4990972250447996  0.3608837042348156
  0.0520071132572184  0.7768350975343949  0.3594939347418347
  0.9964621657160464  0.6656910165934846  0.3598434514913009
  0.0518836879077327  0.9433732217358610  0.3613928046988164
  0.9964358226967249  0.8323348980670815  0.3599856575594487
  0.2184156286864010  0.1096335111903954  0.3680121300379469
  0.1629678274121531  0.9987500523946338  0.3628926717535066
  0.2167821630459557  0.2760145823306388  0.3770566363022780
  0.1621305507895556  0.1645576075546487  0.3702250001819110
  0.2185261480737424  0.4438880733704238  0.3658138949625780
  0.1620989201210321  0.3327098531419281  0.3696814817794163
  0.2187514516369617  0.6103407239663170  0.3600244726772672
  0.1631587379813979  0.4991782773494577  0.3621244942388770
  0.2186691751410947  0.7768305284212573  0.3587165386274052
  0.1631356647336304  0.6657386731487023  0.3591569050041485
  0.2185770769235376  0.9433548820374611  0.3610806267964506
  0.1630330693538014  0.8322625971906348  0.3593511145775210
  0.3851518208224434  0.1096611769188556  0.3659854880836804
  0.3297435404054525  0.9988511507453453  0.3615938764393576
  0.3855493101917062  0.2756879534148169  0.3830474241738386
  0.3290721787728614  0.1641222302140406  0.3720845166529969
  0.3860698491047998  0.4451226810218074  0.3722995750837725
  0.3295183493149807  0.3334963004423557  0.3828888797005874
  0.3854245017086839  0.6103965326404150  0.3616881804955767
  0.3300112098989629  0.4995905151759814  0.3659304597863695
  0.3853954166104074  0.7769028322461082  0.3585505680920349
  0.3297895632297312  0.6658087525675356  0.3596367892789942
  0.3853852097550146  0.9434491805224212  0.3596182617555428
  0.3297874623838482  0.8323548949721555  0.3585557396839221
  0.5520334120053150  0.1101078684989574  0.3622983300366940
  0.4964327389222518  0.9989342061439572  0.3599829574243287
  0.5530749568359354  0.2765437653236731  0.3704946429324778
  0.4966517677699187  0.1653848445578987  0.3662445989114218
  0.5530413696186116  0.4446926049717774  0.3713254296693407
  0.4983468123550381  0.3331941107363150  0.3778661995989907
  0.5522173367598668  0.6105156537435974  0.3636319625843996
  0.4967662409865810  0.4996295618790825  0.3687813882096407
  0.5521220768748663  0.7769862874700024  0.3594303768908205
  0.4965880276375287  0.6658920615524977  0.3614140110524602
  0.5520223215844666  0.9435239157642741  0.3589268060524660
  0.4964981437368934  0.8324222033169093  0.3586178673281069
  0.7187196362163917  0.1101956738703223  0.3604195134177530
  0.6631243655618633  0.9990492975986243  0.3593522000947473
  0.7189484200753427  0.2768066175020252  0.3630708646736238
  0.6632667387905755  0.1657234177502289  0.3619382588334190
  0.7190174525603581  0.4436750098250215  0.3653928367773034
  0.6637446220211771  0.3324986052755037  0.3662243327963850
  0.7189668450088291  0.6104989276786981  0.3631338021486030
  0.6635111694473821  0.4994120536188404  0.3665179739398639
  0.7187174973624124  0.7769485092813326  0.3601961938772433
  0.6633050051712530  0.6659151251492759  0.3621882849436844
  0.7186965064404021  0.9436003765365300  0.3592354636191644
  0.6631410401955691  0.8324337932125800  0.3593768775733182
  0.8852961173436640  0.1101727365567911  0.3613731445057340
  0.8297363815790462  0.9990538703208429  0.3601726947652537
  0.8852645219639186  0.2768511710979524  0.3614806011985721
  0.8297407973216764  0.1657119299645586  0.3609571755175978
  0.8854570945396816  0.4436036084149606  0.3617230786441823
  0.8299145643637331  0.3324584342288688  0.3618312232070053
  0.8854307842768989  0.6102527895765348  0.3611484589353395
  0.8298972840497569  0.4991422439337256  0.3625464467011952
  0.8853627548793455  0.7769177083136043  0.3601329503038073
  0.8298667849382042  0.6657933154113707  0.3612070043298417
  0.8853111926826998  0.9435136376193753  0.3603365983223128
  0.8297928211873753  0.8323852378041749  0.3599652173894228
  0.2703805107068433  0.3128685413203840  0.4941963886361194
  0.4432223547250089  0.2956486649573051  0.4946941585753919
 
  0.00000000E+00  0.00000000E+00  0.00000000E+00
  0.00000000E+00  0.00000000E+00  0.00000000E+00
  0.00000000E+00  0.00000000E+00  0.00000000E+00
  0.00000000E+00  0.00000000E+00  0.00000000E+00
  0.00000000E+00  0.00000000E+00  0.00000000E+00
  0.00000000E+00  0.00000000E+00  0.00000000E+00
  0.00000000E+00  0.00000000E+00  0.00000000E+00
  0.00000000E+00  0.00000000E+00  0.00000000E+00
  0.00000000E+00  0.00000000E+00  0.00000000E+00
  0.00000000E+00  0.00000000E+00  0.00000000E+00
  0.00000000E+00  0.00000000E+00  0.00000000E+00
  0.00000000E+00  0.00000000E+00  0.00000000E+00
  0.00000000E+00  0.00000000E+00  0.00000000E+00
  0.00000000E+00  0.00000000E+00  0.00000000E+00
  0.00000000E+00  0.00000000E+00  0.00000000E+00
  0.00000000E+00  0.00000000E+00  0.00000000E+00
  0.00000000E+00  0.00000000E+00  0.00000000E+00
  0.00000000E+00  0.00000000E+00  0.00000000E+00
  0.00000000E+00  0.00000000E+00  0.00000000E+00
  0.00000000E+00  0.00000000E+00  0.00000000E+00
  0.00000000E+00  0.00000000E+00  0.00000000E+00
  0.00000000E+00  0.00000000E+00  0.00000000E+00
  0.00000000E+00  0.00000000E+00  0.00000000E+00
  0.00000000E+00  0.00000000E+00  0.00000000E+00
  0.00000000E+00  0.00000000E+00  0.00000000E+00
  0.00000000E+00  0.00000000E+00  0.00000000E+00
  0.00000000E+00  0.00000000E+00  0.00000000E+00
  0.00000000E+00  0.00000000E+00  0.00000000E+00
  0.00000000E+00  0.00000000E+00  0.00000000E+00
  0.00000000E+00  0.00000000E+00  0.00000000E+00
  0.00000000E+00  0.00000000E+00  0.00000000E+00
  0.00000000E+00  0.00000000E+00  0.00000000E+00
  0.00000000E+00  0.00000000E+00  0.00000000E+00
  0.00000000E+00  0.00000000E+00  0.00000000E+00
  0.00000000E+00  0.00000000E+00  0.00000000E+00
  0.00000000E+00  0.00000000E+00  0.00000000E+00
  0.00000000E+00  0.00000000E+00  0.00000000E+00
  0.00000000E+00  0.00000000E+00  0.00000000E+00
  0.00000000E+00  0.00000000E+00  0.00000000E+00
  0.00000000E+00  0.00000000E+00  0.00000000E+00
  0.00000000E+00  0.00000000E+00  0.00000000E+00
  0.00000000E+00  0.00000000E+00  0.00000000E+00
  0.00000000E+00  0.00000000E+00  0.00000000E+00
  0.00000000E+00  0.00000000E+00  0.00000000E+00
  0.00000000E+00  0.00000000E+00  0.00000000E+00
  0.00000000E+00  0.00000000E+00  0.00000000E+00
  0.00000000E+00  0.00000000E+00  0.00000000E+00
  0.00000000E+00  0.00000000E+00  0.00000000E+00
  0.00000000E+00  0.00000000E+00  0.00000000E+00
  0.00000000E+00  0.00000000E+00  0.00000000E+00
  0.00000000E+00  0.00000000E+00  0.00000000E+00
  0.00000000E+00  0.00000000E+00  0.00000000E+00
  0.00000000E+00  0.00000000E+00  0.00000000E+00
  0.00000000E+00  0.00000000E+00  0.00000000E+00
  0.00000000E+00  0.00000000E+00  0.00000000E+00
  0.00000000E+00  0.00000000E+00  0.00000000E+00
  0.00000000E+00  0.00000000E+00  0.00000000E+00
  0.00000000E+00  0.00000000E+00  0.00000000E+00
  0.00000000E+00  0.00000000E+00  0.00000000E+00
  0.00000000E+00  0.00000000E+00  0.00000000E+00
  0.00000000E+00  0.00000000E+00  0.00000000E+00
  0.00000000E+00  0.00000000E+00  0.00000000E+00
  0.00000000E+00  0.00000000E+00  0.00000000E+00
  0.00000000E+00  0.00000000E+00  0.00000000E+00
  0.00000000E+00  0.00000000E+00  0.00000000E+00
  0.00000000E+00  0.00000000E+00  0.00000000E+00
  0.00000000E+00  0.00000000E+00  0.00000000E+00
  0.00000000E+00  0.00000000E+00  0.00000000E+00
  0.00000000E+00  0.00000000E+00  0.00000000E+00
  0.00000000E+00  0.00000000E+00  0.00000000E+00
  0.00000000E+00  0.00000000E+00  0.00000000E+00
  0.00000000E+00  0.00000000E+00  0.00000000E+00
  0.00000000E+00  0.00000000E+00  0.00000000E+00
  0.00000000E+00  0.00000000E+00  0.00000000E+00
