Comment                                 
   1.00000000000000     
    20.0000000000000000    0.0000000000000000    0.0000000000000000
     0.0000000000000000   20.0000000000000000    0.0000000000000000
     0.0000000000000000    0.0000000000000000   20.0000000000000000
   Ag   Au
     3     1
Direct
  0.3741909177888249  0.4249999999999972  0.3973799013240288
  0.4737267314066863  0.4249999999999972  0.4897597159664411
  0.5048004617318514  0.4249999999999972  0.3610695561651701
  0.6036793890726314  0.4249999999999972  0.4528383265443540
 
