C4                                      
   1.00000000000000     
    14.8063199999999995    0.0000000000000000    0.0000000000000000
    -7.4031599999999997   12.8226492600000004    0.0000000000000000
     0.0000000000000000    0.0000000000000000   18.0000000000000000
   C    Ag   Au
    72     2     1
Direct
  0.0590392084468832  0.1124224530364089  0.3654757412006759
  0.0035371761167013  0.0014247657124926  0.3649150291920265
  0.0582920412867978  0.2788775207681624  0.3682091430332619
  0.0031946908995195  0.1677421974644844  0.3665481496454746
  0.0590165701087386  0.4460701783695527  0.3661962416992850
  0.0031950720826757  0.3349083372671018  0.3669735309520519
  0.0591355551451613  0.6126862762781116  0.3650364044154060
  0.0035094359876240  0.5015735218699291  0.3655430550647338
  0.0591501844691749  0.7793097282823922  0.3645032863981967
  0.0035692500573177  0.6681964674258083  0.3647407257290070
  0.0591709058281467  0.9459237494164654  0.3645103382241999
  0.0035914212943453  0.8348494631122207  0.3644868246949144
  0.2259054234952274  0.1124417061552947  0.3642782192153078
  0.1702699132182843  0.0014017958978130  0.3642665128415032
  0.2262825384438827  0.2788253160150447  0.3660499690073138
  0.1702420525823598  0.1677565500887326  0.3650637291236762
  0.2262806317668122  0.4468806409201846  0.3667686986758767
  0.1703134357103480  0.3348749019209762  0.3690795203839414
  0.2258705580837130  0.6129032387387880  0.3649857400439913
  0.1702092404221744  0.5019111978638122  0.3659688119071305
  0.2258162270295330  0.7793569716004711  0.3644505332495314
  0.1702358579097236  0.6683069686004117  0.3647863704535226
  0.2258311182412882  0.9459149400338944  0.3642139626545386
  0.1702393735754200  0.8348460620781424  0.3643552071005161
  0.3925090833013485  0.1125903152257806  0.3641092029575645
  0.3369286986618576  0.0014857517891897  0.3641795017330125
  0.3926892366418571  0.2792408870506051  0.3635980951553250
  0.3369966424755049  0.1681227609058951  0.3640085266576278
  0.3927084343494798  0.4460898774437680  0.3637397013346231
  0.3373832102527174  0.3348953737037945  0.3639210757076512
  0.3926866070005630  0.6129013663139915  0.3641713531325692
  0.3373803132153910  0.5019302979065401  0.3644891642334329
  0.3924920374745184  0.7793644875430985  0.3643800778636717
  0.3369834910186356  0.6683201749365253  0.3645549175724483
  0.3924779336728150  0.9459567286747017  0.3642970934677052
  0.3369065343404429  0.8348711159602757  0.3643509169503147
  0.5591085164233931  0.1125896993372564  0.3645427871121498
  0.5035609729542827  0.0014949380103673  0.3644368700578156
  0.5591830084707539  0.2792711012541034  0.3641321731337328
  0.5036023727913346  0.1681687118229220  0.3642234730426139
  0.5592349065722004  0.4459776701939475  0.3637485722343214
  0.5037340711969094  0.3348724180816376  0.3636710202802149
  0.5592452907513277  0.6127226632474461  0.3638348160869285
  0.5037420872332561  0.5016077965245458  0.3636360308994995
  0.5591876681022327  0.7793568889697156  0.3641477557280979
  0.5037429122006287  0.6683140354620107  0.3639178686293860
  0.5591152296956494  0.9459428942414618  0.3644699480352429
  0.5035942214876101  0.8348640507364422  0.3642638216574170
  0.7257078823119869  0.1125657034316205  0.3652853836993017
  0.6701899863068874  0.0014587455088346  0.3648204299868638
  0.7257179365121971  0.2792511974444878  0.3650387082335769
  0.6701968318227784  0.1681561719585076  0.3649665769426704
  0.7257928899357609  0.4459520775551766  0.3645214877314515
  0.6702513202950939  0.3348542900110303  0.3645618497079823
  0.7258339188759280  0.6126534646423778  0.3642074156587185
  0.6702938338099145  0.5015401411740186  0.3641321426935136
  0.7258217962508837  0.7793148778285470  0.3643224193464221
  0.6703203473545543  0.6682340886438070  0.3640669953841567
  0.7257117897427605  0.9458886784430334  0.3647766363445015
  0.6702519062056425  0.8348360340483865  0.3643600473103632
  0.8921985354322715  0.1124173878021821  0.3659158599589034
  0.8367777521627602  0.0013672889899681  0.3651636956377260
  0.8921894988781744  0.2792252432507283  0.3662213122681450
  0.8367605965752460  0.1681011252159834  0.3659757272082942
  0.8923892318286448  0.4459568182730393  0.3653827553844309
  0.8367757767298016  0.3348604085159579  0.3655432888995449
  0.8924604612330285  0.6126283323323918  0.3646665144578947
  0.8368874319725919  0.5015186347179323  0.3648448359699401
  0.8924756535857554  0.7793037938975687  0.3645076982405371
  0.8369311748282087  0.6682010243883241  0.3644483281486472
  0.8924126438451694  0.9459109649738622  0.3649242268091726
  0.8369120389502953  0.8348366710051565  0.3645547925534061
  0.1803889351635064  0.3371025121496771  0.5008595941514642
  0.3624725400384321  0.3903061440798794  0.5726841308294937
  0.1796958368652071  0.3330374954648292  0.6454103478734083
 
  0.00000000E+00  0.00000000E+00  0.00000000E+00
  0.00000000E+00  0.00000000E+00  0.00000000E+00
  0.00000000E+00  0.00000000E+00  0.00000000E+00
  0.00000000E+00  0.00000000E+00  0.00000000E+00
  0.00000000E+00  0.00000000E+00  0.00000000E+00
  0.00000000E+00  0.00000000E+00  0.00000000E+00
  0.00000000E+00  0.00000000E+00  0.00000000E+00
  0.00000000E+00  0.00000000E+00  0.00000000E+00
  0.00000000E+00  0.00000000E+00  0.00000000E+00
  0.00000000E+00  0.00000000E+00  0.00000000E+00
  0.00000000E+00  0.00000000E+00  0.00000000E+00
  0.00000000E+00  0.00000000E+00  0.00000000E+00
  0.00000000E+00  0.00000000E+00  0.00000000E+00
  0.00000000E+00  0.00000000E+00  0.00000000E+00
  0.00000000E+00  0.00000000E+00  0.00000000E+00
  0.00000000E+00  0.00000000E+00  0.00000000E+00
  0.00000000E+00  0.00000000E+00  0.00000000E+00
  0.00000000E+00  0.00000000E+00  0.00000000E+00
  0.00000000E+00  0.00000000E+00  0.00000000E+00
  0.00000000E+00  0.00000000E+00  0.00000000E+00
  0.00000000E+00  0.00000000E+00  0.00000000E+00
  0.00000000E+00  0.00000000E+00  0.00000000E+00
  0.00000000E+00  0.00000000E+00  0.00000000E+00
  0.00000000E+00  0.00000000E+00  0.00000000E+00
  0.00000000E+00  0.00000000E+00  0.00000000E+00
  0.00000000E+00  0.00000000E+00  0.00000000E+00
  0.00000000E+00  0.00000000E+00  0.00000000E+00
  0.00000000E+00  0.00000000E+00  0.00000000E+00
  0.00000000E+00  0.00000000E+00  0.00000000E+00
  0.00000000E+00  0.00000000E+00  0.00000000E+00
  0.00000000E+00  0.00000000E+00  0.00000000E+00
  0.00000000E+00  0.00000000E+00  0.00000000E+00
  0.00000000E+00  0.00000000E+00  0.00000000E+00
  0.00000000E+00  0.00000000E+00  0.00000000E+00
  0.00000000E+00  0.00000000E+00  0.00000000E+00
  0.00000000E+00  0.00000000E+00  0.00000000E+00
  0.00000000E+00  0.00000000E+00  0.00000000E+00
  0.00000000E+00  0.00000000E+00  0.00000000E+00
  0.00000000E+00  0.00000000E+00  0.00000000E+00
  0.00000000E+00  0.00000000E+00  0.00000000E+00
  0.00000000E+00  0.00000000E+00  0.00000000E+00
  0.00000000E+00  0.00000000E+00  0.00000000E+00
  0.00000000E+00  0.00000000E+00  0.00000000E+00
  0.00000000E+00  0.00000000E+00  0.00000000E+00
  0.00000000E+00  0.00000000E+00  0.00000000E+00
  0.00000000E+00  0.00000000E+00  0.00000000E+00
  0.00000000E+00  0.00000000E+00  0.00000000E+00
  0.00000000E+00  0.00000000E+00  0.00000000E+00
  0.00000000E+00  0.00000000E+00  0.00000000E+00
  0.00000000E+00  0.00000000E+00  0.00000000E+00
  0.00000000E+00  0.00000000E+00  0.00000000E+00
  0.00000000E+00  0.00000000E+00  0.00000000E+00
  0.00000000E+00  0.00000000E+00  0.00000000E+00
  0.00000000E+00  0.00000000E+00  0.00000000E+00
  0.00000000E+00  0.00000000E+00  0.00000000E+00
  0.00000000E+00  0.00000000E+00  0.00000000E+00
  0.00000000E+00  0.00000000E+00  0.00000000E+00
  0.00000000E+00  0.00000000E+00  0.00000000E+00
  0.00000000E+00  0.00000000E+00  0.00000000E+00
  0.00000000E+00  0.00000000E+00  0.00000000E+00
  0.00000000E+00  0.00000000E+00  0.00000000E+00
  0.00000000E+00  0.00000000E+00  0.00000000E+00
  0.00000000E+00  0.00000000E+00  0.00000000E+00
  0.00000000E+00  0.00000000E+00  0.00000000E+00
  0.00000000E+00  0.00000000E+00  0.00000000E+00
  0.00000000E+00  0.00000000E+00  0.00000000E+00
  0.00000000E+00  0.00000000E+00  0.00000000E+00
  0.00000000E+00  0.00000000E+00  0.00000000E+00
  0.00000000E+00  0.00000000E+00  0.00000000E+00
  0.00000000E+00  0.00000000E+00  0.00000000E+00
  0.00000000E+00  0.00000000E+00  0.00000000E+00
  0.00000000E+00  0.00000000E+00  0.00000000E+00
  0.00000000E+00  0.00000000E+00  0.00000000E+00
  0.00000000E+00  0.00000000E+00  0.00000000E+00
  0.00000000E+00  0.00000000E+00  0.00000000E+00
