Comment                                 
   1.00000000000000     
    20.0000000000000000    0.0000000000000000    0.0000000000000000
     0.0000000000000000   20.0000000000000000    0.0000000000000000
     0.0000000000000000    0.0000000000000000   20.0000000000000000
   Cu   Au
     3     1
Direct
  0.3869649555749888  0.4249999999999972  0.4022735584327179
  0.4743725514659545  0.4249999999999972  0.4806735531457420
  0.4995902265722236  0.4249999999999972  0.3690385803417371
  0.5954697663868274  0.4249999999999972  0.4490618080797972
 
  0.00000000E+00  0.00000000E+00  0.00000000E+00
  0.00000000E+00  0.00000000E+00  0.00000000E+00
  0.00000000E+00  0.00000000E+00  0.00000000E+00
  0.00000000E+00  0.00000000E+00  0.00000000E+00
