4                                      
   1.00000000000000     
    14.8063199999999995    0.0000000000000000    0.0000000000000000
    -7.4031599999999997   12.8226492600000004    0.0000000000000000
     0.0000000000000000    0.0000000000000000   17.0000000000000000
   C 
    72
Direct
  0.0555555999999982  0.1111113600000024  0.3831634399999970
  0.0000000000000000  0.0000000000000000  0.3831634399999970
  0.0555555999999982  0.2777780300000003  0.3831634399999970
  0.0000000000000000  0.1666666699999979  0.3831634399999970
  0.0555555999999982  0.4444446999999982  0.3831634399999970
  0.0000000000000000  0.3333333300000021  0.3831634399999970
  0.0555555999999982  0.6111113600000024  0.3831634399999970
  0.0000000000000000  0.5000000000000000  0.3831634399999970
  0.0555555999999982  0.7777780300000003  0.3831634399999970
  0.0000000000000000  0.6666666699999979  0.3831634399999970
  0.0555555999999982  0.9444446999999982  0.3831634399999970
  0.0000000000000000  0.8333333300000021  0.3831634399999970
  0.2222222600000023  0.1111113600000024  0.3831634399999970
  0.1666666699999979  0.0000000000000000  0.3831634399999970
  0.2222222700000032  0.2777780300000003  0.3831634399999970
  0.1666666699999979  0.1666666699999979  0.3831634399999970
  0.2222222700000032  0.4444446999999982  0.3831634399999970
  0.1666666699999979  0.3333333300000021  0.3831634399999970
  0.2222222700000032  0.6111113600000024  0.3831634399999970
  0.1666666699999979  0.5000000000000000  0.3831634399999970
  0.2222222700000032  0.7777780300000003  0.3831634399999970
  0.1666666699999979  0.6666666699999979  0.3831634399999970
  0.2222222700000032  0.9444446999999982  0.3831634399999970
  0.1666666699999979  0.8333333300000021  0.3831634399999970
  0.3888889300000002  0.1111113600000024  0.3831634399999970
  0.3333333300000021  0.0000000000000000  0.3831634399999970
  0.3888889300000002  0.2777780300000003  0.3831634399999970
  0.3333333300000021  0.1666666699999979  0.3831634399999970
  0.3888889300000002  0.4444446999999982  0.3831634399999970
  0.3333333300000021  0.3333333300000021  0.3831634399999970
  0.3888889300000002  0.6111113600000024  0.3831634399999970
  0.3333333300000021  0.5000000000000000  0.3831634399999970
  0.3888889300000002  0.7777780300000003  0.3831634399999970
  0.3333333300000021  0.6666666699999979  0.3831634399999970
  0.3888889300000002  0.9444446999999982  0.3831634399999970
  0.3333333300000021  0.8333333300000021  0.3831634399999970
  0.5555555999999982  0.1111113600000024  0.3831634399999970
  0.5000000000000000  0.0000000000000000  0.3831634399999970
  0.5555555999999982  0.2777780300000003  0.3831634399999970
  0.5000000000000000  0.1666666699999979  0.3831634399999970
  0.5555555999999982  0.4444446999999982  0.3831634399999970
  0.5000000000000000  0.3333333300000021  0.3831634399999970
  0.5555555999999982  0.6111113600000024  0.3831634399999970
  0.5000000000000000  0.5000000000000000  0.3831634399999970
  0.5555555999999982  0.7777780300000003  0.3831634399999970
  0.5000000000000000  0.6666666699999979  0.3831634399999970
  0.5555555999999982  0.9444446999999982  0.3831634399999970
  0.5000000000000000  0.8333333300000021  0.3831634399999970
  0.7222222600000023  0.1111113600000024  0.3831634399999970
  0.6666666699999979  0.0000000000000000  0.3831634399999970
  0.7222222600000023  0.2777780300000003  0.3831634399999970
  0.6666666699999979  0.1666666699999979  0.3831634399999970
  0.7222222600000023  0.4444446999999982  0.3831634399999970
  0.6666666699999979  0.3333333300000021  0.3831634399999970
  0.7222222600000023  0.6111113600000024  0.3831634399999970
  0.6666666699999979  0.5000000000000000  0.3831634399999970
  0.7222222700000032  0.7777780300000003  0.3831634399999970
  0.6666666699999979  0.6666666699999979  0.3831634399999970
  0.7222222700000032  0.9444446999999982  0.3831634399999970
  0.6666666699999979  0.8333333300000021  0.3831634399999970
  0.8888889300000002  0.1111113600000024  0.3831634399999970
  0.8333333300000021  0.0000000000000000  0.3831634399999970
  0.8888889300000002  0.2777780300000003  0.3831634399999970
  0.8333333300000021  0.1666666699999979  0.3831634399999970
  0.8888889300000002  0.4444446999999982  0.3831634399999970
  0.8333333300000021  0.3333333300000021  0.3831634399999970
  0.8888889300000002  0.6111113600000024  0.3831634399999970
  0.8333333300000021  0.5000000000000000  0.3831634399999970
  0.8888889300000002  0.7777780300000003  0.3831634399999970
  0.8333333300000021  0.6666666699999979  0.3831634399999970
  0.8888889300000002  0.9444446999999982  0.3831634399999970
  0.8333333300000021  0.8333333300000021  0.3831634399999970

