C4                                      
   1.00000000000000     
    14.8063199999999995    0.0000000000000000    0.0000000000000000
    -7.4031599999999997   12.8226492600000004    0.0000000000000000
     0.0000000000000000    0.0000000000000000   18.0000000000000000
   C    Pt   Au
    72     1     1
Direct
  0.0530982674866110  0.1108976701522835  0.3608468941581222
  0.9977783967584202  0.9999238753943445  0.3604771734086896
  0.0533096395101325  0.2777142731751070  0.3589725271991213
  0.9976725960089396  0.1664787354090080  0.3596508259643656
  0.0532413459695320  0.4443967087255203  0.3579861739227468
  0.9977336772440211  0.3333812512744814  0.3579861739227468
  0.0534629041218579  0.6111764844472134  0.3585743123242011
  0.9979013287094887  0.5000484219333572  0.3579843269957763
  0.0535486832257561  0.7779053658012174  0.3596449134139803
  0.9979783183053854  0.6667664454627413  0.3589184941998056
  0.0534554408381283  0.9445136189515040  0.3606667319448889
  0.9980288022599524  0.8334873290344547  0.3600240633586154
  0.2201213687075025  0.1110882865154537  0.3625625894464051
  0.1647221612840681  0.0002663370802622  0.3612607619209527
  0.2186695350359429  0.2770127030782703  0.3646737110312870
  0.1641066589189393  0.1664321742577783  0.3626859982274482
  0.2197178760598177  0.4446894988070369  0.3608118469895771
  0.1639174272527768  0.3330884611929648  0.3608118469895771
  0.2200828105999335  0.6112993045909931  0.3596508259643656
  0.1644844563350247  0.5000637668249013  0.3589725271991213
  0.2201534534027090  0.7778737099233481  0.3597313718377109
  0.1645731131607491  0.6667890103208194  0.3591904848833636
  0.2202425113865232  0.9445057171762912  0.3606977598751797
  0.1646634070146789  0.8335070795326942  0.3599675303637611
  0.3869854563377757  0.1109001808641707  0.3612100819297908
  0.3313191114535954  0.9999080726605882  0.3606375724382431
  0.3875239307043543  0.2769692283689409  0.3650319590612909
  0.3315326783986023  0.1664605011049929  0.3629249298208279
  0.3872978049643194  0.4453888936345223  0.3705114398687996
  0.3307979613297931  0.3323890663654794  0.3705114398687996
  0.3865634346611699  0.6113458657422157  0.3626859982274482
  0.3305459219576576  0.5007653369217309  0.3646737110312870
  0.3867434713640918  0.7778541646056567  0.3604771734086896
  0.3310896873343339  0.6668803698477177  0.3608468941581222
  0.3868617565143850  0.9444162784874237  0.3601546392868187
  0.3312082060756154  0.8333711275931321  0.3600559529580423
  0.5535153062049147  0.1109887206871463  0.3596013979212671
  0.4979361557808630  0.9999296690007498  0.3599098057195604
  0.5535697554468015  0.2777066031290829  0.3599816028790173
  0.4979919497012943  0.1665012627888132  0.3602819603298855
  0.5540631961395022  0.4447132449347180  0.3618833020670778
  0.4982389912047935  0.3330647150652837  0.3618833020670778
  0.5539611272936042  0.6113175388950083  0.3629249298208279
  0.4994437823354048  0.5008088116310674  0.3650319590612909
  0.5533447742038078  0.7775117029197389  0.3612607619209527
  0.4979221721920624  0.6666897534845475  0.3625625894464051
  0.5534304132255130  0.9442906909655449  0.3600240633586154
  0.4978309018866227  0.8332644010484955  0.3606667319448889
  0.7201008228426389  0.1110115945372598  0.3589184941998056
  0.6645324074245380  0.9998726741987838  0.3596449134139803
  0.7201473738025825  0.2777267613346126  0.3584080820848214
  0.6645924186102761  0.1665925582118035  0.3588696404285798
  0.7203156289790016  0.4444071787412653  0.3588523362171472
  0.6647975002377393  0.3333707812587363  0.3588523362171472
  0.7203796369124760  0.6112767772111880  0.3602819603298855
  0.6647522423177108  0.5000714368709183  0.3599816028790173
  0.7202999987929815  0.7778699673394129  0.3606375724382431
  0.6649743554736034  0.6668778591358304  0.3612100819297908
  0.7200452774819723  0.9442709404673053  0.3599675303637611
  0.6646258642102296  0.8332723028237083  0.3606977598751797
  0.8866730628399324  0.1109890296791818  0.3591904848833636
  0.8311688234793664  0.9999043300766530  0.3597313718377109
  0.8867418667761342  0.2777296180666440  0.3579843269957763
  0.8311755096746438  0.1666015555527807  0.3585743123242011
  0.8867911612471104  0.4444256594119054  0.3579387409340384
  0.8312545518352152  0.3333523005880963  0.3579387409340384
  0.8868888103984816  0.6111854817881976  0.3588696404285798
  0.8313097024679621  0.5000512786653886  0.3584080820848214
  0.8868954367801152  0.7778483709992514  0.3599098057195604
  0.8314156755177819  0.6667893193128620  0.3596013979212671
  0.8867260184824843  0.9444068924068674  0.3600559529580423
  0.8313345580269527  0.8333617415125758  0.3601546392868187
  0.3539458073358901  0.3888892100000021  0.4826800851352502
  0.3485236817443322  0.3888892100000021  0.6211180840422443
 
  0.00000000E+00  0.00000000E+00  0.00000000E+00
  0.00000000E+00  0.00000000E+00  0.00000000E+00
  0.00000000E+00  0.00000000E+00  0.00000000E+00
  0.00000000E+00  0.00000000E+00  0.00000000E+00
  0.00000000E+00  0.00000000E+00  0.00000000E+00
  0.00000000E+00  0.00000000E+00  0.00000000E+00
  0.00000000E+00  0.00000000E+00  0.00000000E+00
  0.00000000E+00  0.00000000E+00  0.00000000E+00
  0.00000000E+00  0.00000000E+00  0.00000000E+00
  0.00000000E+00  0.00000000E+00  0.00000000E+00
  0.00000000E+00  0.00000000E+00  0.00000000E+00
  0.00000000E+00  0.00000000E+00  0.00000000E+00
  0.00000000E+00  0.00000000E+00  0.00000000E+00
  0.00000000E+00  0.00000000E+00  0.00000000E+00
  0.00000000E+00  0.00000000E+00  0.00000000E+00
  0.00000000E+00  0.00000000E+00  0.00000000E+00
  0.00000000E+00  0.00000000E+00  0.00000000E+00
  0.00000000E+00  0.00000000E+00  0.00000000E+00
  0.00000000E+00  0.00000000E+00  0.00000000E+00
  0.00000000E+00  0.00000000E+00  0.00000000E+00
  0.00000000E+00  0.00000000E+00  0.00000000E+00
  0.00000000E+00  0.00000000E+00  0.00000000E+00
  0.00000000E+00  0.00000000E+00  0.00000000E+00
  0.00000000E+00  0.00000000E+00  0.00000000E+00
  0.00000000E+00  0.00000000E+00  0.00000000E+00
  0.00000000E+00  0.00000000E+00  0.00000000E+00
  0.00000000E+00  0.00000000E+00  0.00000000E+00
  0.00000000E+00  0.00000000E+00  0.00000000E+00
  0.00000000E+00  0.00000000E+00  0.00000000E+00
  0.00000000E+00  0.00000000E+00  0.00000000E+00
  0.00000000E+00  0.00000000E+00  0.00000000E+00
  0.00000000E+00  0.00000000E+00  0.00000000E+00
  0.00000000E+00  0.00000000E+00  0.00000000E+00
  0.00000000E+00  0.00000000E+00  0.00000000E+00
  0.00000000E+00  0.00000000E+00  0.00000000E+00
  0.00000000E+00  0.00000000E+00  0.00000000E+00
  0.00000000E+00  0.00000000E+00  0.00000000E+00
  0.00000000E+00  0.00000000E+00  0.00000000E+00
  0.00000000E+00  0.00000000E+00  0.00000000E+00
  0.00000000E+00  0.00000000E+00  0.00000000E+00
  0.00000000E+00  0.00000000E+00  0.00000000E+00
  0.00000000E+00  0.00000000E+00  0.00000000E+00
  0.00000000E+00  0.00000000E+00  0.00000000E+00
  0.00000000E+00  0.00000000E+00  0.00000000E+00
  0.00000000E+00  0.00000000E+00  0.00000000E+00
  0.00000000E+00  0.00000000E+00  0.00000000E+00
  0.00000000E+00  0.00000000E+00  0.00000000E+00
  0.00000000E+00  0.00000000E+00  0.00000000E+00
  0.00000000E+00  0.00000000E+00  0.00000000E+00
  0.00000000E+00  0.00000000E+00  0.00000000E+00
  0.00000000E+00  0.00000000E+00  0.00000000E+00
  0.00000000E+00  0.00000000E+00  0.00000000E+00
  0.00000000E+00  0.00000000E+00  0.00000000E+00
  0.00000000E+00  0.00000000E+00  0.00000000E+00
  0.00000000E+00  0.00000000E+00  0.00000000E+00
  0.00000000E+00  0.00000000E+00  0.00000000E+00
  0.00000000E+00  0.00000000E+00  0.00000000E+00
  0.00000000E+00  0.00000000E+00  0.00000000E+00
  0.00000000E+00  0.00000000E+00  0.00000000E+00
  0.00000000E+00  0.00000000E+00  0.00000000E+00
  0.00000000E+00  0.00000000E+00  0.00000000E+00
  0.00000000E+00  0.00000000E+00  0.00000000E+00
  0.00000000E+00  0.00000000E+00  0.00000000E+00
  0.00000000E+00  0.00000000E+00  0.00000000E+00
  0.00000000E+00  0.00000000E+00  0.00000000E+00
  0.00000000E+00  0.00000000E+00  0.00000000E+00
  0.00000000E+00  0.00000000E+00  0.00000000E+00
  0.00000000E+00  0.00000000E+00  0.00000000E+00
  0.00000000E+00  0.00000000E+00  0.00000000E+00
  0.00000000E+00  0.00000000E+00  0.00000000E+00
  0.00000000E+00  0.00000000E+00  0.00000000E+00
  0.00000000E+00  0.00000000E+00  0.00000000E+00
  0.00000000E+00  0.00000000E+00  0.00000000E+00
  0.00000000E+00  0.00000000E+00  0.00000000E+00
