C4                                      
   1.00000000000000     
    14.8063199999999995    0.0000000000000000    0.0000000000000000
    -7.4031599999999997   12.8226492600000004    0.0000000000000000
     0.0000000000000000    0.0000000000000000   14.5322800000000001
   C    Pt
    72     4
Direct
  0.0544443382348447  0.1088850239188872  0.4480686762560566
  0.9990982895519807  0.9979631241102283  0.4483271284798818
  0.0543399568106295  0.2755314926538546  0.4479473916618417
  0.9988724098744939  0.1644220551549296  0.4481005958072686
  0.0545386296688761  0.4423033313394953  0.4477795794667827
  0.9989308874725324  0.3310946122867691  0.4478947669517694
  0.0545440374607793  0.6089534141386750  0.4478615055616260
  0.9990381220502158  0.4979428888759330  0.4477977660036245
  0.0546472061332537  0.7758008938181220  0.4481759539363139
  0.9990371616463065  0.6645944658687171  0.4480142028910663
  0.0546982756998062  0.9424503599689515  0.4482733740236924
  0.9992280731617740  0.8313539085267649  0.4484465426757893
  0.2211887437741282  0.1090822001356528  0.4481409816600248
  0.1657480895903518  0.9980361051351849  0.4481534608748063
  0.2208645325955629  0.2754364100247386  0.4480544993885047
  0.1655206189770908  0.1644143815581600  0.4479306354240791
  0.2209359044719221  0.4421271423912287  0.4480816025259173
  0.1654662873139898  0.3310772552509036  0.4480314021722052
  0.2211192193735059  0.6090627492496594  0.4479652031563290
  0.1654935693036990  0.4978432014213467  0.4478374228105864
  0.2212965475754274  0.7758019138270669  0.4481069994496778
  0.1656952052015868  0.6645970790234017  0.4479150898894630
  0.2212735749435097  0.9424051069829034  0.4482099976609106
  0.1657802484360218  0.8314173597693539  0.4481526638508129
  0.3880315295816246  0.1090805677461901  0.4481669761646572
  0.3324317407339663  0.9980378730913628  0.4481443308020303
  0.3878283783830483  0.2755116136992370  0.4492246386328702
  0.3324931327498888  0.1648358396886067  0.4484169373344500
  0.3862621636466699  0.4413427000339070  0.4521815365897481
  0.3318332287327124  0.3308883322362490  0.4492688541022645
  0.3878324201503176  0.6093773047079409  0.4504398860329957
  0.3318757599193773  0.4974805261551154  0.4497731441057127
  0.3878255777552297  0.7757856927647069  0.4488663341079970
  0.3322709683638152  0.6647401717925163  0.4486632138358999
  0.3878919278684734  0.9424491235534518  0.4482322173925510
  0.3322624692756762  0.8313502978211815  0.4483546624022381
  0.5545807422292768  0.1088899562953785  0.4480995998218091
  0.4990013350975246  0.9979637096356697  0.4483022879399883
  0.5547074993722063  0.2754391483900775  0.4481961483920784
  0.4990316364426661  0.1644172919887694  0.4479999851888365
  0.5552114367534102  0.4413466302368150  0.4523741585060606
  0.4991922834378499  0.3308914545168733  0.4493914804522774
  0.5550099374165569  0.6099091579883549  0.4625260824704824
  0.4983958718461281  0.4966832746025744  0.4613478403721132
  0.5543539560434141  0.7759116668036867  0.4513198279748707
  0.4983288129556840  0.6654073978079680  0.4539924465128564
  0.5545519681238105  0.9424320444686458  0.4488245460709450
  0.4988564265027051  0.8314016673658386  0.4494067657267280
  0.7211651528710661  0.1088505817353465  0.4484548688518686
  0.6655569214345718  0.9977933027798827  0.4490311400625302
  0.7213261585735395  0.2755319799114915  0.4480506030996878
  0.6656926750378531  0.1644235105360039  0.4481468392233978
  0.7213234406229532  0.4421325721330120  0.4483328598734033
  0.6657436214805372  0.3310817919705542  0.4482091033770601
  0.7216767188568838  0.6093784632588779  0.4507402429487826
  0.6657332278832371  0.4974845435128969  0.4500813662452074
  0.7216928656408825  0.7759092379147035  0.4514415331399846
  0.6672061063994548  0.6654001256027726  0.4541897157174404
  0.7210869493600995  0.9420353508771484  0.4497633852309022
  0.6657353354268096  0.8313350003849891  0.4512454433378394
  0.8878256436705030  0.1088546631365972  0.4484510700539701
  0.8323800398836312  0.9978011810142675  0.4490572202951597
  0.8878002267730025  0.2754668949231416  0.4480100060830310
  0.8323109971019136  0.1644887356567466  0.4483496611582538
  0.8878980779242127  0.4423029072167637  0.4478637303112052
  0.8323007043047639  0.3310939928194614  0.4479653977213758
  0.8880816288684485  0.6090688016774379  0.4481519378813985
  0.8324815445871394  0.4978470885072568  0.4480175316629627
  0.8880985026839667  0.7757870896156334  0.4490273652538121
  0.8326069866776180  0.6647458290136328  0.4489044163856093
  0.8880171403708061  0.9424332510274098  0.4488838344321309
  0.8326796422991620  0.8313979095795645  0.4495289102287643
  0.5238786350390399  0.5487507617582494  0.6049933185419221
  0.3696675093870638  0.5382697256770044  0.6949377677386437
  0.5134535828340816  0.5306551838108859  0.7728777112064833
  0.6647216513024219  0.5355201251262827  0.6971760464255112
 
  0.00000000E+00  0.00000000E+00  0.00000000E+00
  0.00000000E+00  0.00000000E+00  0.00000000E+00
  0.00000000E+00  0.00000000E+00  0.00000000E+00
  0.00000000E+00  0.00000000E+00  0.00000000E+00
  0.00000000E+00  0.00000000E+00  0.00000000E+00
  0.00000000E+00  0.00000000E+00  0.00000000E+00
  0.00000000E+00  0.00000000E+00  0.00000000E+00
  0.00000000E+00  0.00000000E+00  0.00000000E+00
  0.00000000E+00  0.00000000E+00  0.00000000E+00
  0.00000000E+00  0.00000000E+00  0.00000000E+00
  0.00000000E+00  0.00000000E+00  0.00000000E+00
  0.00000000E+00  0.00000000E+00  0.00000000E+00
  0.00000000E+00  0.00000000E+00  0.00000000E+00
  0.00000000E+00  0.00000000E+00  0.00000000E+00
  0.00000000E+00  0.00000000E+00  0.00000000E+00
  0.00000000E+00  0.00000000E+00  0.00000000E+00
  0.00000000E+00  0.00000000E+00  0.00000000E+00
  0.00000000E+00  0.00000000E+00  0.00000000E+00
  0.00000000E+00  0.00000000E+00  0.00000000E+00
  0.00000000E+00  0.00000000E+00  0.00000000E+00
  0.00000000E+00  0.00000000E+00  0.00000000E+00
  0.00000000E+00  0.00000000E+00  0.00000000E+00
  0.00000000E+00  0.00000000E+00  0.00000000E+00
  0.00000000E+00  0.00000000E+00  0.00000000E+00
  0.00000000E+00  0.00000000E+00  0.00000000E+00
  0.00000000E+00  0.00000000E+00  0.00000000E+00
  0.00000000E+00  0.00000000E+00  0.00000000E+00
  0.00000000E+00  0.00000000E+00  0.00000000E+00
  0.00000000E+00  0.00000000E+00  0.00000000E+00
  0.00000000E+00  0.00000000E+00  0.00000000E+00
  0.00000000E+00  0.00000000E+00  0.00000000E+00
  0.00000000E+00  0.00000000E+00  0.00000000E+00
  0.00000000E+00  0.00000000E+00  0.00000000E+00
  0.00000000E+00  0.00000000E+00  0.00000000E+00
  0.00000000E+00  0.00000000E+00  0.00000000E+00
  0.00000000E+00  0.00000000E+00  0.00000000E+00
  0.00000000E+00  0.00000000E+00  0.00000000E+00
  0.00000000E+00  0.00000000E+00  0.00000000E+00
  0.00000000E+00  0.00000000E+00  0.00000000E+00
  0.00000000E+00  0.00000000E+00  0.00000000E+00
  0.00000000E+00  0.00000000E+00  0.00000000E+00
  0.00000000E+00  0.00000000E+00  0.00000000E+00
  0.00000000E+00  0.00000000E+00  0.00000000E+00
  0.00000000E+00  0.00000000E+00  0.00000000E+00
  0.00000000E+00  0.00000000E+00  0.00000000E+00
  0.00000000E+00  0.00000000E+00  0.00000000E+00
  0.00000000E+00  0.00000000E+00  0.00000000E+00
  0.00000000E+00  0.00000000E+00  0.00000000E+00
  0.00000000E+00  0.00000000E+00  0.00000000E+00
  0.00000000E+00  0.00000000E+00  0.00000000E+00
  0.00000000E+00  0.00000000E+00  0.00000000E+00
  0.00000000E+00  0.00000000E+00  0.00000000E+00
  0.00000000E+00  0.00000000E+00  0.00000000E+00
  0.00000000E+00  0.00000000E+00  0.00000000E+00
  0.00000000E+00  0.00000000E+00  0.00000000E+00
  0.00000000E+00  0.00000000E+00  0.00000000E+00
  0.00000000E+00  0.00000000E+00  0.00000000E+00
  0.00000000E+00  0.00000000E+00  0.00000000E+00
  0.00000000E+00  0.00000000E+00  0.00000000E+00
  0.00000000E+00  0.00000000E+00  0.00000000E+00
  0.00000000E+00  0.00000000E+00  0.00000000E+00
  0.00000000E+00  0.00000000E+00  0.00000000E+00
  0.00000000E+00  0.00000000E+00  0.00000000E+00
  0.00000000E+00  0.00000000E+00  0.00000000E+00
  0.00000000E+00  0.00000000E+00  0.00000000E+00
  0.00000000E+00  0.00000000E+00  0.00000000E+00
  0.00000000E+00  0.00000000E+00  0.00000000E+00
  0.00000000E+00  0.00000000E+00  0.00000000E+00
  0.00000000E+00  0.00000000E+00  0.00000000E+00
  0.00000000E+00  0.00000000E+00  0.00000000E+00
  0.00000000E+00  0.00000000E+00  0.00000000E+00
  0.00000000E+00  0.00000000E+00  0.00000000E+00
  0.00000000E+00  0.00000000E+00  0.00000000E+00
  0.00000000E+00  0.00000000E+00  0.00000000E+00
  0.00000000E+00  0.00000000E+00  0.00000000E+00
  0.00000000E+00  0.00000000E+00  0.00000000E+00
