C4                                      
   1.00000000000000     
    14.8063199999999995    0.0000000000000000    0.0000000000000000
    -7.4031599999999997   12.8226492600000004    0.0000000000000000
     0.0000000000000000    0.0000000000000000   18.0000000000000000
   C    Au
    72     4
Direct
  0.0555557945877538  0.1111066695076204  0.3611823208489682
  0.9999960064669793  0.9999998368707779  0.3614027858298741
  0.0555681219393733  0.2777842202949685  0.3609556273313927
  0.0000060868023368  0.1666617973144753  0.3612864827325240
  0.0555539722051179  0.4444466507623019  0.3611824213656547
  0.0000049138171079  0.3333422141633022  0.3612857197751893
  0.0555440020733897  0.6110913115338192  0.3614686317248683
  0.9999944838963728  0.4999937674970241  0.3614020047787037
  0.0555376326169679  0.7777685435840453  0.3615159720684531
  0.9999842148806195  0.6666478775434683  0.3613577310982095
  0.0555451549601500  0.9444506109083264  0.3614683733072965
  0.9999851316057828  0.8333353943747568  0.3613581069153113
  0.2222171430287716  0.1111139001401895  0.3607073430966992
  0.1666605681544198  0.0000096863235655  0.3613562213662647
  0.2222075438071656  0.2777459787789738  0.3595424504314835
  0.1666599198571674  0.1666576372184920  0.3605223559021056
  0.2222071351093859  0.4444603321895499  0.3595428603084869
  0.1666741865399288  0.3333360516939976  0.3599883513652600
  0.2222176221786469  0.6111010474132001  0.3607091390485593
  0.1666587573967107  0.4999995908319903  0.3605233503975285
  0.2222272601333444  0.7777669088620698  0.3615169130005143
  0.1666599910826392  0.6666481695418653  0.3613585833076982
  0.2222264025941172  0.9444580217035465  0.3615143565941565
  0.1666624335147375  0.8333296842292839  0.3616532380453634
  0.3888916550710206  0.1111124572921725  0.3607090383175162
  0.3333455237734597  0.0000099623276810  0.3613566176513956
  0.3888446033923572  0.2776996217165504  0.3586747301091577
  0.3333274068934458  0.1666611229181640  0.3600492103118711
  0.3888947950303674  0.4444465681998437  0.3575985382152922
  0.3332876069216937  0.3332217046632380  0.3583435282523411
  0.3888453778035981  0.6111444834879336  0.3586740106636768
  0.3332873097308280  0.5000644866853889  0.3583430160077086
  0.3888929842166391  0.7777778112496208  0.3607112264503769
  0.3333277441882458  0.6666648752085393  0.3600497063088355
  0.3889027509568095  0.9444501612598302  0.3614686156149389
  0.3333462174443866  0.8333334864544781  0.3613592282255595
  0.5555470435520746  0.1111046631176436  0.3611818237596154
  0.4999984297883771  0.9999980106539965  0.3614022753874764
  0.5555348109908493  0.2777440569873875  0.3595539129037419
  0.4999926082623816  0.1666541235101917  0.3605251577652382
  0.5555428450425879  0.4444473577625772  0.3576325146536163
  0.4999269695335116  0.3332203900889539  0.3583676375271665
  0.5555440322580338  0.6110944653713872  0.3576325415423369
  0.4999852104704843  0.4999901107275733  0.3568431218231396
  0.5555355192173224  0.7777905865032793  0.3595537485405345
  0.4999275488733019  0.6667068374450267  0.3583661071949038
  0.5555468238987586  0.9444401068074626  0.3611835442451934
  0.4999929942539794  0.8333376895515840  0.3605264019457906
  0.7222086502605265  0.1111039666455156  0.3615545179989468
  0.6666525634661511  0.9999899862257280  0.3612882364087113
  0.7222121587199695  0.2777809778565441  0.3609558933518926
  0.6666526740607424  0.1666615233835174  0.3612855404921120
  0.7222488947027585  0.4444586693275383  0.3595568053558225
  0.6666562844249455  0.3333340820974939  0.3599956053010445
  0.7222979178297706  0.6111480104944818  0.3586867095218551
  0.6667722991807850  0.5000648778487786  0.3583716506186363
  0.7222511706470200  0.7777900036757828  0.3595565589898939
  0.6667719101779639  0.6667063368917709  0.3583708771589968
  0.7222126751506366  0.9444302029171538  0.3609584075421424
  0.6666581342525504  0.8333223378188066  0.3599955653917135
  0.8888932720212708  0.1111036773117888  0.3615554255429245
  0.8333338378013195  0.9999914371896352  0.3612888121773992
  0.8888919276408700  0.2777877595528153  0.3615533592115412
  0.8333299247074564  0.1666634485217742  0.3616200410894947
  0.8888900114365370  0.4444461743133630  0.3611821729643694
  0.8333335401808100  0.3333412076958098  0.3612845164506808
  0.8888812159956316  0.6111005714431315  0.3607102963985085
  0.8333390788767332  0.5000010449812464  0.3605271148832898
  0.8888825980887418  0.7777794876619097  0.3607108063142022
  0.8333338106658559  0.6666661456746681  0.3600521383734403
  0.8888917244080758  0.9444417160542784  0.3611842857672798
  0.8333408490417611  0.8333377430270517  0.3605278619194223
  0.5641526802853178  0.6286135345347930  0.5369864660654358
  0.5004692010111924  0.5002564257515445  0.6548325179668240
  0.5642111580614113  0.4355730725581211  0.5370409464296060
  0.3713847038658002  0.4357450552729389  0.5370278862557996
 
  0.00000000E+00  0.00000000E+00  0.00000000E+00
  0.00000000E+00  0.00000000E+00  0.00000000E+00
  0.00000000E+00  0.00000000E+00  0.00000000E+00
  0.00000000E+00  0.00000000E+00  0.00000000E+00
  0.00000000E+00  0.00000000E+00  0.00000000E+00
  0.00000000E+00  0.00000000E+00  0.00000000E+00
  0.00000000E+00  0.00000000E+00  0.00000000E+00
  0.00000000E+00  0.00000000E+00  0.00000000E+00
  0.00000000E+00  0.00000000E+00  0.00000000E+00
  0.00000000E+00  0.00000000E+00  0.00000000E+00
  0.00000000E+00  0.00000000E+00  0.00000000E+00
  0.00000000E+00  0.00000000E+00  0.00000000E+00
  0.00000000E+00  0.00000000E+00  0.00000000E+00
  0.00000000E+00  0.00000000E+00  0.00000000E+00
  0.00000000E+00  0.00000000E+00  0.00000000E+00
  0.00000000E+00  0.00000000E+00  0.00000000E+00
  0.00000000E+00  0.00000000E+00  0.00000000E+00
  0.00000000E+00  0.00000000E+00  0.00000000E+00
  0.00000000E+00  0.00000000E+00  0.00000000E+00
  0.00000000E+00  0.00000000E+00  0.00000000E+00
  0.00000000E+00  0.00000000E+00  0.00000000E+00
  0.00000000E+00  0.00000000E+00  0.00000000E+00
  0.00000000E+00  0.00000000E+00  0.00000000E+00
  0.00000000E+00  0.00000000E+00  0.00000000E+00
  0.00000000E+00  0.00000000E+00  0.00000000E+00
  0.00000000E+00  0.00000000E+00  0.00000000E+00
  0.00000000E+00  0.00000000E+00  0.00000000E+00
  0.00000000E+00  0.00000000E+00  0.00000000E+00
  0.00000000E+00  0.00000000E+00  0.00000000E+00
  0.00000000E+00  0.00000000E+00  0.00000000E+00
  0.00000000E+00  0.00000000E+00  0.00000000E+00
  0.00000000E+00  0.00000000E+00  0.00000000E+00
  0.00000000E+00  0.00000000E+00  0.00000000E+00
  0.00000000E+00  0.00000000E+00  0.00000000E+00
  0.00000000E+00  0.00000000E+00  0.00000000E+00
  0.00000000E+00  0.00000000E+00  0.00000000E+00
  0.00000000E+00  0.00000000E+00  0.00000000E+00
  0.00000000E+00  0.00000000E+00  0.00000000E+00
  0.00000000E+00  0.00000000E+00  0.00000000E+00
  0.00000000E+00  0.00000000E+00  0.00000000E+00
  0.00000000E+00  0.00000000E+00  0.00000000E+00
  0.00000000E+00  0.00000000E+00  0.00000000E+00
  0.00000000E+00  0.00000000E+00  0.00000000E+00
  0.00000000E+00  0.00000000E+00  0.00000000E+00
  0.00000000E+00  0.00000000E+00  0.00000000E+00
  0.00000000E+00  0.00000000E+00  0.00000000E+00
  0.00000000E+00  0.00000000E+00  0.00000000E+00
  0.00000000E+00  0.00000000E+00  0.00000000E+00
  0.00000000E+00  0.00000000E+00  0.00000000E+00
  0.00000000E+00  0.00000000E+00  0.00000000E+00
  0.00000000E+00  0.00000000E+00  0.00000000E+00
  0.00000000E+00  0.00000000E+00  0.00000000E+00
  0.00000000E+00  0.00000000E+00  0.00000000E+00
  0.00000000E+00  0.00000000E+00  0.00000000E+00
  0.00000000E+00  0.00000000E+00  0.00000000E+00
  0.00000000E+00  0.00000000E+00  0.00000000E+00
  0.00000000E+00  0.00000000E+00  0.00000000E+00
  0.00000000E+00  0.00000000E+00  0.00000000E+00
  0.00000000E+00  0.00000000E+00  0.00000000E+00
  0.00000000E+00  0.00000000E+00  0.00000000E+00
  0.00000000E+00  0.00000000E+00  0.00000000E+00
  0.00000000E+00  0.00000000E+00  0.00000000E+00
  0.00000000E+00  0.00000000E+00  0.00000000E+00
  0.00000000E+00  0.00000000E+00  0.00000000E+00
  0.00000000E+00  0.00000000E+00  0.00000000E+00
  0.00000000E+00  0.00000000E+00  0.00000000E+00
  0.00000000E+00  0.00000000E+00  0.00000000E+00
  0.00000000E+00  0.00000000E+00  0.00000000E+00
  0.00000000E+00  0.00000000E+00  0.00000000E+00
  0.00000000E+00  0.00000000E+00  0.00000000E+00
  0.00000000E+00  0.00000000E+00  0.00000000E+00
  0.00000000E+00  0.00000000E+00  0.00000000E+00
  0.00000000E+00  0.00000000E+00  0.00000000E+00
  0.00000000E+00  0.00000000E+00  0.00000000E+00
  0.00000000E+00  0.00000000E+00  0.00000000E+00
  0.00000000E+00  0.00000000E+00  0.00000000E+00
