C4                                      
   1.00000000000000     
    14.8063199999999995    0.0000000000000000    0.0000000000000000
    -7.4031599999999997   12.8226492600000004    0.0000000000000000
     0.0000000000000000    0.0000000000000000   18.0000000000000000
   C    Ni
    72     4
Direct
  0.0553713795268607  0.1109509243233191  0.3643692445415567
  0.9999059629180564  0.9999382865042890  0.3652686060393293
  0.0543461830496881  0.2773903041777217  0.3656478833291743
  0.9996494210336095  0.1666015654968902  0.3655339668647386
  0.0552848337382770  0.4447497833554905  0.3669014274757174
  0.9996439338971257  0.3334859458109989  0.3668819557126568
  0.0556173318004909  0.6114024569868945  0.3673432821829010
  0.9999617541605730  0.5003122272698235  0.3676402296917658
  0.0556436116819157  0.7779540233638471  0.3665627267156495
  0.0001245412151221  0.6669157424302483  0.3672966686923331
  0.0555261423673556  0.9444600968732502  0.3652241048012712
  0.0000751132477532  0.8334538246303183  0.3661574992001064
  0.2220334233760681  0.1107336467521378  0.3623798319514719
  0.1665689936268819  0.9998046472537681  0.3642831117900727
  0.2212553553983128  0.2770551054626154  0.3601174995450620
  0.1660113933946050  0.1657225914891427  0.3622367171870664
  0.2214512008551708  0.4450779222426675  0.3631358938482734
  0.1654767652154803  0.3331485486197252  0.3631002404447230
  0.2221635596186076  0.6116157631188344  0.3655671105763076
  0.1660845272578655  0.5008276137164955  0.3656988292775623
  0.2223195934242170  0.7780803820545259  0.3662951010911826
  0.1667119262024599  0.6670568726767954  0.3665621187387202
  0.2222671545058930  0.9444600968732502  0.3652241048012712
  0.1667120413825600  0.8334538246303183  0.3661574992001064
  0.3889127447964640  0.1109509243233191  0.3643692445415567
  0.3333656535862346  0.9999382865042890  0.3652686060393293
  0.3891329500643010  0.2770551054626154  0.3601174995450620
  0.3330445380945335  0.1657225914891427  0.3622367171870664
  0.3893122753736051  0.4452913507472118  0.3557629405395559
  0.3331414813570390  0.3329496227140822  0.3558082120107429
  0.3893888853549470  0.6124707295214193  0.3622844497990485
  0.3333141231372991  0.5011501392666275  0.3601263981056206
  0.3890688188762894  0.7782607022522043  0.3652853085439531
  0.3335276900687631  0.6672490729446992  0.3643972913851030
  0.3890179574675443  0.9446004296090535  0.3659999550288475
  0.3334283972812173  0.8336115627216856  0.3659861135406999
  0.5557418624028045  0.1111526650482517  0.3665602095040867
  0.5001293703523260  0.0001330139975622  0.3663093825377430
  0.5563773111280241  0.2773903041777217  0.3656478833291743
  0.5002854744632828  0.1666015654968902  0.3655339668647386
  0.5569599213874952  0.4450779222426675  0.3631358938482734
  0.5010051134042328  0.3331485486197252  0.3631002404447230
  0.5564150441664779  0.6124707295214193  0.3622844497990485
  0.5011693461293234  0.5011501392666275  0.3601263981056206
  0.5558681423110983  0.7784030846221981  0.3643093443233809
  0.5003989863069549  0.6674646326139140  0.3624304284771895
  0.5557312786521820  0.9447551116835768  0.3661807059460500
  0.5001707839240481  0.8337487967238104  0.3652346924028009
  0.7223058743819522  0.1112785487639130  0.3672716822598261
  0.6667931106622262  0.0002528813244567  0.3665579936212708
  0.7224921548046481  0.2779127235404388  0.3676547216562938
  0.6668376889034420  0.1668161533442429  0.3673196441143389
  0.7227981496172049  0.4447497833554905  0.3669014274757174
  0.6671753419138682  0.3334859458109989  0.3668819557126568
  0.7227853935002315  0.6116157631188344  0.3655671105763076
  0.6680764164586321  0.5008276137164955  0.3656988292775623
  0.7225250833759063  0.7782607022522043  0.3652853085439531
  0.6670547128759452  0.6672490729446992  0.3643972913851030
  0.7223570330313933  0.9447551116835768  0.3661807059460500
  0.6669113427997502  0.8337487967238104  0.3652346924028009
  0.8887440026454456  0.1111526650482517  0.3665602095040867
  0.8333369736452383  0.0001330139975622  0.3663093825377430
  0.8887537687357963  0.2779127235404388  0.3676547216562938
  0.8333118044408039  0.1668161533442429  0.3673196441143389
  0.8889970844445898  0.4446609688891741  0.3680179096732203
  0.8334553072918354  0.3335772745836820  0.3680389744145742
  0.8891183251864092  0.6114024569868945  0.3673432821829010
  0.8336838031092526  0.5003122272698235  0.3676402296917658
  0.8890939886303073  0.7780803820545259  0.3662951010911826
  0.8336782764743305  0.6670568726767954  0.3665621187387202
  0.8889156621415140  0.9446004296090535  0.3659999550288475
  0.8335164954404704  0.8336115627216856  0.3659861135406999
  0.3184629985895668  0.3035926671791387  0.5471068060737920
  0.2787469646864764  0.3888384103428635  0.4540551186769548
  0.4043889535749017  0.4754445771498084  0.5466155658775449
  0.4434247856563758  0.3888384103428635  0.4540551186769548
 
  0.00000000E+00  0.00000000E+00  0.00000000E+00
  0.00000000E+00  0.00000000E+00  0.00000000E+00
  0.00000000E+00  0.00000000E+00  0.00000000E+00
  0.00000000E+00  0.00000000E+00  0.00000000E+00
  0.00000000E+00  0.00000000E+00  0.00000000E+00
  0.00000000E+00  0.00000000E+00  0.00000000E+00
  0.00000000E+00  0.00000000E+00  0.00000000E+00
  0.00000000E+00  0.00000000E+00  0.00000000E+00
  0.00000000E+00  0.00000000E+00  0.00000000E+00
  0.00000000E+00  0.00000000E+00  0.00000000E+00
  0.00000000E+00  0.00000000E+00  0.00000000E+00
  0.00000000E+00  0.00000000E+00  0.00000000E+00
  0.00000000E+00  0.00000000E+00  0.00000000E+00
  0.00000000E+00  0.00000000E+00  0.00000000E+00
  0.00000000E+00  0.00000000E+00  0.00000000E+00
  0.00000000E+00  0.00000000E+00  0.00000000E+00
  0.00000000E+00  0.00000000E+00  0.00000000E+00
  0.00000000E+00  0.00000000E+00  0.00000000E+00
  0.00000000E+00  0.00000000E+00  0.00000000E+00
  0.00000000E+00  0.00000000E+00  0.00000000E+00
  0.00000000E+00  0.00000000E+00  0.00000000E+00
  0.00000000E+00  0.00000000E+00  0.00000000E+00
  0.00000000E+00  0.00000000E+00  0.00000000E+00
  0.00000000E+00  0.00000000E+00  0.00000000E+00
  0.00000000E+00  0.00000000E+00  0.00000000E+00
  0.00000000E+00  0.00000000E+00  0.00000000E+00
  0.00000000E+00  0.00000000E+00  0.00000000E+00
  0.00000000E+00  0.00000000E+00  0.00000000E+00
  0.00000000E+00  0.00000000E+00  0.00000000E+00
  0.00000000E+00  0.00000000E+00  0.00000000E+00
  0.00000000E+00  0.00000000E+00  0.00000000E+00
  0.00000000E+00  0.00000000E+00  0.00000000E+00
  0.00000000E+00  0.00000000E+00  0.00000000E+00
  0.00000000E+00  0.00000000E+00  0.00000000E+00
  0.00000000E+00  0.00000000E+00  0.00000000E+00
  0.00000000E+00  0.00000000E+00  0.00000000E+00
  0.00000000E+00  0.00000000E+00  0.00000000E+00
  0.00000000E+00  0.00000000E+00  0.00000000E+00
  0.00000000E+00  0.00000000E+00  0.00000000E+00
  0.00000000E+00  0.00000000E+00  0.00000000E+00
  0.00000000E+00  0.00000000E+00  0.00000000E+00
  0.00000000E+00  0.00000000E+00  0.00000000E+00
  0.00000000E+00  0.00000000E+00  0.00000000E+00
  0.00000000E+00  0.00000000E+00  0.00000000E+00
  0.00000000E+00  0.00000000E+00  0.00000000E+00
  0.00000000E+00  0.00000000E+00  0.00000000E+00
  0.00000000E+00  0.00000000E+00  0.00000000E+00
  0.00000000E+00  0.00000000E+00  0.00000000E+00
  0.00000000E+00  0.00000000E+00  0.00000000E+00
  0.00000000E+00  0.00000000E+00  0.00000000E+00
  0.00000000E+00  0.00000000E+00  0.00000000E+00
  0.00000000E+00  0.00000000E+00  0.00000000E+00
  0.00000000E+00  0.00000000E+00  0.00000000E+00
  0.00000000E+00  0.00000000E+00  0.00000000E+00
  0.00000000E+00  0.00000000E+00  0.00000000E+00
  0.00000000E+00  0.00000000E+00  0.00000000E+00
  0.00000000E+00  0.00000000E+00  0.00000000E+00
  0.00000000E+00  0.00000000E+00  0.00000000E+00
  0.00000000E+00  0.00000000E+00  0.00000000E+00
  0.00000000E+00  0.00000000E+00  0.00000000E+00
  0.00000000E+00  0.00000000E+00  0.00000000E+00
  0.00000000E+00  0.00000000E+00  0.00000000E+00
  0.00000000E+00  0.00000000E+00  0.00000000E+00
  0.00000000E+00  0.00000000E+00  0.00000000E+00
  0.00000000E+00  0.00000000E+00  0.00000000E+00
  0.00000000E+00  0.00000000E+00  0.00000000E+00
  0.00000000E+00  0.00000000E+00  0.00000000E+00
  0.00000000E+00  0.00000000E+00  0.00000000E+00
  0.00000000E+00  0.00000000E+00  0.00000000E+00
  0.00000000E+00  0.00000000E+00  0.00000000E+00
  0.00000000E+00  0.00000000E+00  0.00000000E+00
  0.00000000E+00  0.00000000E+00  0.00000000E+00
  0.00000000E+00  0.00000000E+00  0.00000000E+00
  0.00000000E+00  0.00000000E+00  0.00000000E+00
  0.00000000E+00  0.00000000E+00  0.00000000E+00
  0.00000000E+00  0.00000000E+00  0.00000000E+00
