Comment                                 
   1.00000000000000     
    20.0000000000000000    0.0000000000000000    0.0000000000000000
     0.0000000000000000   20.0000000000000000    0.0000000000000000
     0.0000000000000000    0.0000000000000000   20.0000000000000000
   Pd   Au
     2     2
Direct
  0.3295632939262448  0.4048390833232974  0.4086877845498357
  0.3909599030129059  0.4481888182947643  0.5231683709411248
  0.3775909906133513  0.5278808788641126  0.4182466369325650
  0.4615396624475015  0.4134281195178232  0.4165965075764808
 
  0.00000000E+00  0.00000000E+00  0.00000000E+00
  0.00000000E+00  0.00000000E+00  0.00000000E+00
  0.00000000E+00  0.00000000E+00  0.00000000E+00
  0.00000000E+00  0.00000000E+00  0.00000000E+00
