C4                                      
   1.00000000000000     
    14.8063199999999995    0.0000000000000000    0.0000000000000000
    -7.4031599999999997   12.8226492600000004    0.0000000000000000
     0.0000000000000000    0.0000000000000000   18.0000000000000000
   C    Cu
    72     4
Direct
  0.0553861807139739  0.1110268809308650  0.3626631182942290
  0.9998816528622214  0.9998864550364459  0.3629786690693280
  0.0555232977208391  0.2777369851217841  0.3618011984261216
  0.9999354474609916  0.1665508991270528  0.3622000832954768
  0.0555242725161520  0.4443820050323097  0.3616084987795887
  0.0000119020553910  0.3333571441107779  0.3616222719272457
  0.0555988259437683  0.6111756933233323  0.3621768433260470
  0.0000136128752786  0.4999947086366632  0.3617695925863558
  0.0556473541021916  0.7778359339246848  0.3629866322922055
  0.0001399894676695  0.6666946579981072  0.3626403822234323
  0.0554667742640973  0.9443495873948535  0.3631776631304646
  0.0000586364214072  0.8333734209420669  0.3631659529389850
  0.2219788178675159  0.1109614752409414  0.3633926167852977
  0.1665701346884134  0.9998756462741767  0.3633984354141191
  0.2219502155853306  0.2776141957722515  0.3624393931922896
  0.1664905463372222  0.1665769835479907  0.3628786451740496
  0.2220820331360684  0.4444750575136425  0.3618496110281626
  0.1664833779213168  0.3332738476244330  0.3618768958444960
  0.2222433973795575  0.6111756933233323  0.3621768433260470
  0.1666477557613888  0.4999947086366632  0.3617695925863558
  0.2222235826597796  0.7777806253195649  0.3629359951006137
  0.1667121163584895  0.6667575727169819  0.3623526750269548
  0.2221840021589472  0.9444863285424816  0.3636796893533969
  0.1666694199212628  0.8333640166660743  0.3631933743297182
  0.3888567788837776  0.1110470177675609  0.3646906007687818
  0.3333880840588606  0.0001095081177169  0.3641903207340818
  0.3877659640104056  0.2772271638626194  0.3652593851408952
  0.3329222296856074  0.1664127277466818  0.3642408624743894
  0.3887254607996553  0.4446591684212677  0.3632710405629780
  0.3329481843885560  0.3330991516655359  0.3632967390567003
  0.3887822808966774  0.6111536597628557  0.3628227320516473
  0.3332075474062108  0.5001299643362103  0.3624012030980808
  0.3888551098224937  0.7778359339246848  0.3629866322922055
  0.3332213385304357  0.6666946579981072  0.3626403822234323
  0.3889688563835350  0.9444863285424816  0.3636796893533969
  0.3333612567448085  0.8333640166660743  0.3631933743297182
  0.5556491873734188  0.1109614752409414  0.3633926167852977
  0.4999721815857612  0.9998756462741767  0.3633984354141191
  0.5561277298522143  0.2772271638626194  0.3652593851408952
  0.5001571680610652  0.1664127277466818  0.3642408624743894
  0.5558774384443623  0.4450883368887304  0.3693848928135992
  0.4996711346713241  0.3326756093426582  0.3694304895656799
  0.5553785788591057  0.6113264423000544  0.3641569273349177
  0.4994118796095961  0.5005199616802756  0.3651983349176149
  0.5555575907323629  0.7778462575776857  0.3633324768749446
  0.4998791881303788  0.6667651505898888  0.3633201808027309
  0.5555493431307568  0.9443495873948535  0.3631776631304646
  0.4999814545206576  0.8333734209420669  0.3631659529389850
  0.7223072302168845  0.1110268809308650  0.3626631182942290
  0.6666714721742224  0.9998864550364459  0.3629786690693280
  0.7223305101869215  0.2776141957722515  0.3624393931922896
  0.6667531072107593  0.1665769835479907  0.3628786451740496
  0.7226002376216130  0.4446591684212677  0.3632710405629780
  0.6668176372769850  0.3330991516655359  0.3632967390567003
  0.7226143934409563  0.6113264423000544  0.3641569273349177
  0.6677747420706694  0.5005199616802756  0.3651983349176149
  0.7221446531562279  0.7776227663124757  0.3640574093433955
  0.6666822257678788  0.6666977915357535  0.3645721273222762
  0.7221694662225744  0.9443667255424373  0.3631220452680282
  0.6665624299149258  0.8332451735633342  0.3635871490184925
  0.8888160738800792  0.1109656077601571  0.3623473633529031
  0.8333095357252418  0.9999524114504865  0.3628734338294066
  0.8888802174009527  0.2777369851217841  0.3618011984261216
  0.8332821216660662  0.1665508991270528  0.3622000832954768
  0.8890595543775746  0.4444750575136425  0.3618496110281626
  0.8334571397031212  0.3332738476244330  0.3618768958444960
  0.8890379088661859  0.6111536597628557  0.3628227320516473
  0.8335890869299902  0.5001299643362103  0.3624012030980808
  0.8889551968453233  0.7778462575776857  0.3633324768749446
  0.8335526324595222  0.6667651505898888  0.3633201808027309
  0.8888637893198705  0.9443667255424373  0.3631220452680282
  0.8333494036484126  0.8332451735633342  0.3635871490184925
  0.5278608128729942  0.3890549557459835  0.4820805382914770
  0.6090310581245717  0.5513954462491384  0.5515749234842744
  0.5280788108535646  0.3894909517071383  0.6096918681043419
  0.4469226693046053  0.2271786686092199  0.5518163949441259
 
  0.00000000E+00  0.00000000E+00  0.00000000E+00
  0.00000000E+00  0.00000000E+00  0.00000000E+00
  0.00000000E+00  0.00000000E+00  0.00000000E+00
  0.00000000E+00  0.00000000E+00  0.00000000E+00
  0.00000000E+00  0.00000000E+00  0.00000000E+00
  0.00000000E+00  0.00000000E+00  0.00000000E+00
  0.00000000E+00  0.00000000E+00  0.00000000E+00
  0.00000000E+00  0.00000000E+00  0.00000000E+00
  0.00000000E+00  0.00000000E+00  0.00000000E+00
  0.00000000E+00  0.00000000E+00  0.00000000E+00
  0.00000000E+00  0.00000000E+00  0.00000000E+00
  0.00000000E+00  0.00000000E+00  0.00000000E+00
  0.00000000E+00  0.00000000E+00  0.00000000E+00
  0.00000000E+00  0.00000000E+00  0.00000000E+00
  0.00000000E+00  0.00000000E+00  0.00000000E+00
  0.00000000E+00  0.00000000E+00  0.00000000E+00
  0.00000000E+00  0.00000000E+00  0.00000000E+00
  0.00000000E+00  0.00000000E+00  0.00000000E+00
  0.00000000E+00  0.00000000E+00  0.00000000E+00
  0.00000000E+00  0.00000000E+00  0.00000000E+00
  0.00000000E+00  0.00000000E+00  0.00000000E+00
  0.00000000E+00  0.00000000E+00  0.00000000E+00
  0.00000000E+00  0.00000000E+00  0.00000000E+00
  0.00000000E+00  0.00000000E+00  0.00000000E+00
  0.00000000E+00  0.00000000E+00  0.00000000E+00
  0.00000000E+00  0.00000000E+00  0.00000000E+00
  0.00000000E+00  0.00000000E+00  0.00000000E+00
  0.00000000E+00  0.00000000E+00  0.00000000E+00
  0.00000000E+00  0.00000000E+00  0.00000000E+00
  0.00000000E+00  0.00000000E+00  0.00000000E+00
  0.00000000E+00  0.00000000E+00  0.00000000E+00
  0.00000000E+00  0.00000000E+00  0.00000000E+00
  0.00000000E+00  0.00000000E+00  0.00000000E+00
  0.00000000E+00  0.00000000E+00  0.00000000E+00
  0.00000000E+00  0.00000000E+00  0.00000000E+00
  0.00000000E+00  0.00000000E+00  0.00000000E+00
  0.00000000E+00  0.00000000E+00  0.00000000E+00
  0.00000000E+00  0.00000000E+00  0.00000000E+00
  0.00000000E+00  0.00000000E+00  0.00000000E+00
  0.00000000E+00  0.00000000E+00  0.00000000E+00
  0.00000000E+00  0.00000000E+00  0.00000000E+00
  0.00000000E+00  0.00000000E+00  0.00000000E+00
  0.00000000E+00  0.00000000E+00  0.00000000E+00
  0.00000000E+00  0.00000000E+00  0.00000000E+00
  0.00000000E+00  0.00000000E+00  0.00000000E+00
  0.00000000E+00  0.00000000E+00  0.00000000E+00
  0.00000000E+00  0.00000000E+00  0.00000000E+00
  0.00000000E+00  0.00000000E+00  0.00000000E+00
  0.00000000E+00  0.00000000E+00  0.00000000E+00
  0.00000000E+00  0.00000000E+00  0.00000000E+00
  0.00000000E+00  0.00000000E+00  0.00000000E+00
  0.00000000E+00  0.00000000E+00  0.00000000E+00
  0.00000000E+00  0.00000000E+00  0.00000000E+00
  0.00000000E+00  0.00000000E+00  0.00000000E+00
  0.00000000E+00  0.00000000E+00  0.00000000E+00
  0.00000000E+00  0.00000000E+00  0.00000000E+00
  0.00000000E+00  0.00000000E+00  0.00000000E+00
  0.00000000E+00  0.00000000E+00  0.00000000E+00
  0.00000000E+00  0.00000000E+00  0.00000000E+00
  0.00000000E+00  0.00000000E+00  0.00000000E+00
  0.00000000E+00  0.00000000E+00  0.00000000E+00
  0.00000000E+00  0.00000000E+00  0.00000000E+00
  0.00000000E+00  0.00000000E+00  0.00000000E+00
  0.00000000E+00  0.00000000E+00  0.00000000E+00
  0.00000000E+00  0.00000000E+00  0.00000000E+00
  0.00000000E+00  0.00000000E+00  0.00000000E+00
  0.00000000E+00  0.00000000E+00  0.00000000E+00
  0.00000000E+00  0.00000000E+00  0.00000000E+00
  0.00000000E+00  0.00000000E+00  0.00000000E+00
  0.00000000E+00  0.00000000E+00  0.00000000E+00
  0.00000000E+00  0.00000000E+00  0.00000000E+00
  0.00000000E+00  0.00000000E+00  0.00000000E+00
  0.00000000E+00  0.00000000E+00  0.00000000E+00
  0.00000000E+00  0.00000000E+00  0.00000000E+00
  0.00000000E+00  0.00000000E+00  0.00000000E+00
  0.00000000E+00  0.00000000E+00  0.00000000E+00
