Comment                                 
   1.00000000000000     
    17.0000000000000000    0.0000000000000000    0.0000000000000000
     0.0000000000000000   17.0000000000000000    0.0000000000000000
     0.0000000000000000    0.0000000000000000   17.0000000000000000
   Pt
     4
Direct
  0.4225730647801437  0.4611504674847258  0.5128654153126185
  0.5390153684564811  0.4822972241844030  0.5991283605068881
  0.4974596882066479  0.5918427422998300  0.5113334871515223
  0.3528911885567269  0.5876719360310445  0.4887350770289720
 
  0.00000000E+00  0.00000000E+00  0.00000000E+00
  0.00000000E+00  0.00000000E+00  0.00000000E+00
  0.00000000E+00  0.00000000E+00  0.00000000E+00
  0.00000000E+00  0.00000000E+00  0.00000000E+00
