C4                                      
   1.00000000000000     
    14.8063199999999995    0.0000000000000000    0.0000000000000000
    -7.4031599999999997   12.8226492600000004    0.0000000000000000
     0.0000000000000000    0.0000000000000000   17.0000000000000000
   C    Pt   Au
    72     1     2
Direct
  0.0543980570742235  0.1086203956661862  0.3830714545040479
  0.9989913286195886  0.9976289750892917  0.3833913212823674
  0.0544340011897191  0.2753205632374787  0.3838799855354864
  0.9988740430950784  0.1642221718710459  0.3831509775228028
  0.0544022264016917  0.4419624466724130  0.3853883873318864
  0.9988358993603228  0.3308366111159984  0.3843527870161481
  0.0544168415014923  0.6085222347860650  0.3864128507398590
  0.9988448798744898  0.4974816487922737  0.3859910076114801
  0.0543921243527379  0.7751750627211322  0.3862357085327801
  0.9990019232860803  0.6641459688867002  0.3870469921448532
  0.0543784670872540  0.9418915949997100  0.3840224774963801
  0.9988075315965048  0.8307277886439195  0.3855586276188845
  0.2208902985817573  0.1083546534473143  0.3829336011608859
  0.1653627273046112  0.9972789803991020  0.3835736342471847
  0.2209405835185052  0.2750562978127817  0.3836314971250800
  0.1654319385327057  0.1639811422738902  0.3830624545722401
  0.2211376752117715  0.4419282563192297  0.3857188662295101
  0.1654865776809444  0.3307289066583721  0.3844141024143326
  0.2209607790808263  0.6085393694135277  0.3862750630804328
  0.1654801178390741  0.4974891032199622  0.3859310186792797
  0.2210160999267146  0.7751814344016665  0.3856275358691903
  0.1654663227436899  0.6640862317027114  0.3861111669483819
  0.2209517225687634  0.9417377322418830  0.3840997586544788
  0.1654619995439148  0.8307121773489925  0.3853095806106168
  0.3875577262304262  0.1082790738897756  0.3825838798027164
  0.3320414747001976  0.9972383083811707  0.3834316868419307
  0.3873568271545906  0.2747359365595585  0.3826134117952904
  0.3319410601727313  0.1637705412097574  0.3825397218350872
  0.3874616544123342  0.4414104433462569  0.3857933452125906
  0.3319139264364068  0.3302961238552982  0.3837475941151141
  0.3874889239851171  0.6086150619565345  0.3881007531988629
  0.3320511977945060  0.4973508236715602  0.3868457455322982
  0.3876303898154703  0.7751946323973300  0.3859878447693532
  0.3319950286376567  0.6641673012783471  0.3867941056383870
  0.3876276613916190  0.9417498517888916  0.3839577822814348
  0.3320974219236419  0.8307320259129938  0.3851632626349115
  0.5543057770941218  0.1083627368895677  0.3827629695949568
  0.4987493656894699  0.9972862876817530  0.3833804963936487
  0.5542114704076866  0.2747401615336926  0.3825184435995439
  0.4986557568254071  0.1637699356050675  0.3824397016518049
  0.5537682266457509  0.4406946434857417  0.3844250612832312
  0.4984763398125125  0.3301209667151284  0.3823914412852787
  0.5534647837895221  0.6079286787051998  0.3933687424013712
  0.4979666356753114  0.4960375816793814  0.3874748229338181
  0.5541994412511642  0.7752612807484027  0.3865525997172838
  0.4982114927457459  0.6645071257229631  0.3899256986987254
  0.5543566278862926  0.9419028102853844  0.3837845541813252
  0.4987596229525835  0.8307405467216498  0.3852644396609577
  0.7210686177144439  0.1086253192333757  0.3829096902796039
  0.6654795812455987  0.9976332000005499  0.3831961569633577
  0.7209652659739305  0.2750650177288563  0.3834754173629875
  0.6653974181584417  0.1639905139476880  0.3828804324524739
  0.7207976898639643  0.4414131562619019  0.3858077067826500
  0.6652170555923789  0.3302920719050491  0.3836329298961445
  0.7213027606689337  0.6079244702050630  0.3934743240106684
  0.6649261582669794  0.4960529577452704  0.3875084793640440
  0.7221338579553418  0.7773828022929976  0.3861201049915906
  0.6661726595689004  0.6654818574932122  0.3914581057247375
  0.7211648307611398  0.9422966699868383  0.3833240950600825
  0.6656984935879606  0.8314136870227600  0.3847529151863398
  0.8878202052432655  0.1087914735346160  0.3829090672769198
  0.8322782264711677  0.9977038581858366  0.3829766427214665
  0.8877291233948768  0.2753314599580818  0.3837825605192009
  0.8321941733563989  0.1642286428353898  0.3830533582132674
  0.8876336034708103  0.4419264884275762  0.3857173743610929
  0.8320858777164304  0.3307437089751559  0.3842911198451020
  0.8879576575898795  0.6086115569535053  0.3883524952638027
  0.8321431211580190  0.4973484548663620  0.3869433584162891
  0.8879023756123345  0.7752632754457878  0.3868592941696036
  0.8331126472308625  0.6645012154078671  0.3902136418705027
  0.8879863502639012  0.9423061598753932  0.3834583643214131
  0.8325921866372639  0.8314386928319166  0.3849281710717207
  0.6441890124818883  0.6230504989431793  0.5107043718461313
  0.5513942090388966  0.6242205698357495  0.6383660264039577
  0.7350515915732032  0.6238076423570078  0.6399302336364627
 
  0.00000000E+00  0.00000000E+00  0.00000000E+00
  0.00000000E+00  0.00000000E+00  0.00000000E+00
  0.00000000E+00  0.00000000E+00  0.00000000E+00
  0.00000000E+00  0.00000000E+00  0.00000000E+00
  0.00000000E+00  0.00000000E+00  0.00000000E+00
  0.00000000E+00  0.00000000E+00  0.00000000E+00
  0.00000000E+00  0.00000000E+00  0.00000000E+00
  0.00000000E+00  0.00000000E+00  0.00000000E+00
  0.00000000E+00  0.00000000E+00  0.00000000E+00
  0.00000000E+00  0.00000000E+00  0.00000000E+00
  0.00000000E+00  0.00000000E+00  0.00000000E+00
  0.00000000E+00  0.00000000E+00  0.00000000E+00
  0.00000000E+00  0.00000000E+00  0.00000000E+00
  0.00000000E+00  0.00000000E+00  0.00000000E+00
  0.00000000E+00  0.00000000E+00  0.00000000E+00
  0.00000000E+00  0.00000000E+00  0.00000000E+00
  0.00000000E+00  0.00000000E+00  0.00000000E+00
  0.00000000E+00  0.00000000E+00  0.00000000E+00
  0.00000000E+00  0.00000000E+00  0.00000000E+00
  0.00000000E+00  0.00000000E+00  0.00000000E+00
  0.00000000E+00  0.00000000E+00  0.00000000E+00
  0.00000000E+00  0.00000000E+00  0.00000000E+00
  0.00000000E+00  0.00000000E+00  0.00000000E+00
  0.00000000E+00  0.00000000E+00  0.00000000E+00
  0.00000000E+00  0.00000000E+00  0.00000000E+00
  0.00000000E+00  0.00000000E+00  0.00000000E+00
  0.00000000E+00  0.00000000E+00  0.00000000E+00
  0.00000000E+00  0.00000000E+00  0.00000000E+00
  0.00000000E+00  0.00000000E+00  0.00000000E+00
  0.00000000E+00  0.00000000E+00  0.00000000E+00
  0.00000000E+00  0.00000000E+00  0.00000000E+00
  0.00000000E+00  0.00000000E+00  0.00000000E+00
  0.00000000E+00  0.00000000E+00  0.00000000E+00
  0.00000000E+00  0.00000000E+00  0.00000000E+00
  0.00000000E+00  0.00000000E+00  0.00000000E+00
  0.00000000E+00  0.00000000E+00  0.00000000E+00
  0.00000000E+00  0.00000000E+00  0.00000000E+00
  0.00000000E+00  0.00000000E+00  0.00000000E+00
  0.00000000E+00  0.00000000E+00  0.00000000E+00
  0.00000000E+00  0.00000000E+00  0.00000000E+00
  0.00000000E+00  0.00000000E+00  0.00000000E+00
  0.00000000E+00  0.00000000E+00  0.00000000E+00
  0.00000000E+00  0.00000000E+00  0.00000000E+00
  0.00000000E+00  0.00000000E+00  0.00000000E+00
  0.00000000E+00  0.00000000E+00  0.00000000E+00
  0.00000000E+00  0.00000000E+00  0.00000000E+00
  0.00000000E+00  0.00000000E+00  0.00000000E+00
  0.00000000E+00  0.00000000E+00  0.00000000E+00
  0.00000000E+00  0.00000000E+00  0.00000000E+00
  0.00000000E+00  0.00000000E+00  0.00000000E+00
  0.00000000E+00  0.00000000E+00  0.00000000E+00
  0.00000000E+00  0.00000000E+00  0.00000000E+00
  0.00000000E+00  0.00000000E+00  0.00000000E+00
  0.00000000E+00  0.00000000E+00  0.00000000E+00
  0.00000000E+00  0.00000000E+00  0.00000000E+00
  0.00000000E+00  0.00000000E+00  0.00000000E+00
  0.00000000E+00  0.00000000E+00  0.00000000E+00
  0.00000000E+00  0.00000000E+00  0.00000000E+00
  0.00000000E+00  0.00000000E+00  0.00000000E+00
  0.00000000E+00  0.00000000E+00  0.00000000E+00
  0.00000000E+00  0.00000000E+00  0.00000000E+00
  0.00000000E+00  0.00000000E+00  0.00000000E+00
  0.00000000E+00  0.00000000E+00  0.00000000E+00
  0.00000000E+00  0.00000000E+00  0.00000000E+00
  0.00000000E+00  0.00000000E+00  0.00000000E+00
  0.00000000E+00  0.00000000E+00  0.00000000E+00
  0.00000000E+00  0.00000000E+00  0.00000000E+00
  0.00000000E+00  0.00000000E+00  0.00000000E+00
  0.00000000E+00  0.00000000E+00  0.00000000E+00
  0.00000000E+00  0.00000000E+00  0.00000000E+00
  0.00000000E+00  0.00000000E+00  0.00000000E+00
  0.00000000E+00  0.00000000E+00  0.00000000E+00
  0.00000000E+00  0.00000000E+00  0.00000000E+00
  0.00000000E+00  0.00000000E+00  0.00000000E+00
  0.00000000E+00  0.00000000E+00  0.00000000E+00
