POSCAR                                  
   1.00000000000000     
    20.0000000000000000    0.0000000000000000    0.0000000000000000
     0.0000000000000000   20.0000000000000000    0.0000000000000000
     0.0000000000000000    0.0000000000000000   20.0000000000000000
   Pd   Au
     1     1
Direct
  0.4509890130494014  0.2713722483426082  0.6099369499999980
  0.5736528369505933  0.2895474516573913  0.6099370000000022
 
  0.00000000E+00  0.00000000E+00  0.00000000E+00
  0.00000000E+00  0.00000000E+00  0.00000000E+00
