C4                                      
   1.00000000000000     
    14.8063199999999995    0.0000000000000000    0.0000000000000000
    -7.4031599999999997   12.8226492600000004    0.0000000000000000
     0.0000000000000000    0.0000000000000000   18.0000000000000000
   C    Pd
    72     4
Direct
  0.0553604765000699  0.1109662949430898  0.3613812336861244
  0.0000294340772626  0.9999705659227374  0.3612773776331721
  0.0554294480866560  0.2777149340433311  0.3612006879458818
  0.9998876992365666  0.1665429556648519  0.3610621117258006
  0.0553604665000691  0.4443945915569856  0.3613812336861244
  0.9998876892365658  0.3333447035717256  0.3610621117258006
  0.0555624624415785  0.6111250548831464  0.3613850309106752
  0.0000294440772635  0.5000588981545206  0.3612773776331721
  0.0556096965148427  0.7778050782574226  0.3614387531832790
  0.0001286695040719  0.6667175984195026  0.3615788326482630
  0.0555624424415768  0.9444378575584196  0.3613850309106752
  0.0001286595040710  0.8334110710845692  0.3615788326482630
  0.2219901360676317  0.1108124914039195  0.3623534452208546
  0.1665889289154308  0.9998713404959290  0.3615788326482630
  0.2215566932334596  0.2772164951903875  0.3635119951427583
  0.1663759329778856  0.1663261042284034  0.3623272894684177
  0.2215566832334588  0.4443405980430697  0.3635119951427583
  0.1661705393633142  0.3330852446816550  0.3623649003790206
  0.2219901460676326  0.6111781146637156  0.3623534452208546
  0.1663759529778872  0.5000498487494909  0.3623272894684177
  0.2221952517425763  0.7778050782574226  0.3614387531832790
  0.1665889289154308  0.6667175984195026  0.3615788326482630
  0.2221952417425754  0.9443906134851545  0.3614387531832790
  0.1666666599999971  0.8333333300000021  0.3612852116647574
  0.3888222253362841  0.1108124914039195  0.3623534452208546
  0.3332824115804982  0.9998713404959290  0.3615788326482630
  0.3884146918391096  0.2768295136782228  0.3653345319782417
  0.3330677891563809  0.1661355683127610  0.3631792552274433
  0.3885832093887274  0.4442917996943621  0.3679834159298281
  0.3325162053526682  0.3321815533326600  0.3664688521880208
  0.3884147118391112  0.6115856381608893  0.3653345319782417
  0.3325162353526636  0.5003346620200162  0.3664688521880208
  0.3888222253362841  0.7780101839323663  0.3623534452208546
  0.3330677991563817  0.6669322208436199  0.3631792552274433
  0.3888752751168525  0.9444378575584196  0.3613850309106752
  0.3332824115804982  0.8334110710845692  0.3615788326482630
  0.5556056784430154  0.1109662949430898  0.3613812336861244
  0.4999411318454818  0.9999705659227374  0.3612773776331721
  0.5556596619569305  0.2772164951903875  0.3635119951427583
  0.4999501712505108  0.1663261042284034  0.3623272894684177
  0.5557084603056381  0.4442917996943621  0.3679834159298281
  0.4996653479799917  0.3321815533326600  0.3664688521880208
  0.5557084903056406  0.6114171106112707  0.3679834159298281
  0.5000000100000008  0.5000000300000025  0.3649560284523332
  0.5556596819569322  0.7784436167665447  0.3635119951427583
  0.4996653779799942  0.6674837946473318  0.3664688521880208
  0.5556056784430154  0.9446398234999265  0.3613812336861244
  0.4999501812505116  0.8336240570221136  0.3623272894684177
  0.7222612057799367  0.1111308228899688  0.3608383771101842
  0.6666552664282719  0.0001122907634326  0.3610621117258006
  0.7222853459566707  0.2777149340433311  0.3612006879458818
  0.6666552564282711  0.1665429556648519  0.3610621117258006
  0.7227837748096135  0.4443405980430697  0.3635119951427583
  0.6669147053183480  0.3330852446816550  0.3623649003790206
  0.7231707863217736  0.6115856381608893  0.3653345319782417
  0.6678184266673384  0.5003346620200162  0.3664688521880208
  0.7227838048096089  0.7784436167665447  0.3635119951427583
  0.6678184166673446  0.6674837946473318  0.3664688521880208
  0.7222853559566644  0.9445708419133396  0.3612006879458818
  0.6669147153183417  0.8338294406366842  0.3623649003790206
  0.8888694871100355  0.1111308228899688  0.3608383771101842
  0.8334570243351536  0.0001122907634326  0.3610621117258006
  0.8888694771100347  0.2777390842200589  0.3608383771101842
  0.8333333300000021  0.1666666500000034  0.3607348799436565
  0.8890339950569128  0.4443945915569856  0.3613812336861244
  0.8334570143351527  0.3333447035717256  0.3610621117258006
  0.8891878285960857  0.6111781146637156  0.3623534452208546
  0.8336738957715966  0.5000498487494909  0.3623272894684177
  0.8891878185960849  0.7780101839323663  0.3623534452208546
  0.8338644216872453  0.6669322208436199  0.3631792552274433
  0.8890340050569137  0.9446398234999265  0.3613812336861244
  0.8336738757716020  0.8336240570221136  0.3623272894684177
  0.5597705496607546  0.6195410993215162  0.4958848637638553
  0.5000002100000032  0.5000004199999992  0.6118283472730397
  0.5597704796607559  0.4402300803392478  0.4958848637638553
  0.3804596006784848  0.4402300803392478  0.4958848637638553
 
  0.00000000E+00  0.00000000E+00  0.00000000E+00
  0.00000000E+00  0.00000000E+00  0.00000000E+00
  0.00000000E+00  0.00000000E+00  0.00000000E+00
  0.00000000E+00  0.00000000E+00  0.00000000E+00
  0.00000000E+00  0.00000000E+00  0.00000000E+00
  0.00000000E+00  0.00000000E+00  0.00000000E+00
  0.00000000E+00  0.00000000E+00  0.00000000E+00
  0.00000000E+00  0.00000000E+00  0.00000000E+00
  0.00000000E+00  0.00000000E+00  0.00000000E+00
  0.00000000E+00  0.00000000E+00  0.00000000E+00
  0.00000000E+00  0.00000000E+00  0.00000000E+00
  0.00000000E+00  0.00000000E+00  0.00000000E+00
  0.00000000E+00  0.00000000E+00  0.00000000E+00
  0.00000000E+00  0.00000000E+00  0.00000000E+00
  0.00000000E+00  0.00000000E+00  0.00000000E+00
  0.00000000E+00  0.00000000E+00  0.00000000E+00
  0.00000000E+00  0.00000000E+00  0.00000000E+00
  0.00000000E+00  0.00000000E+00  0.00000000E+00
  0.00000000E+00  0.00000000E+00  0.00000000E+00
  0.00000000E+00  0.00000000E+00  0.00000000E+00
  0.00000000E+00  0.00000000E+00  0.00000000E+00
  0.00000000E+00  0.00000000E+00  0.00000000E+00
  0.00000000E+00  0.00000000E+00  0.00000000E+00
  0.00000000E+00  0.00000000E+00  0.00000000E+00
  0.00000000E+00  0.00000000E+00  0.00000000E+00
  0.00000000E+00  0.00000000E+00  0.00000000E+00
  0.00000000E+00  0.00000000E+00  0.00000000E+00
  0.00000000E+00  0.00000000E+00  0.00000000E+00
  0.00000000E+00  0.00000000E+00  0.00000000E+00
  0.00000000E+00  0.00000000E+00  0.00000000E+00
  0.00000000E+00  0.00000000E+00  0.00000000E+00
  0.00000000E+00  0.00000000E+00  0.00000000E+00
  0.00000000E+00  0.00000000E+00  0.00000000E+00
  0.00000000E+00  0.00000000E+00  0.00000000E+00
  0.00000000E+00  0.00000000E+00  0.00000000E+00
  0.00000000E+00  0.00000000E+00  0.00000000E+00
  0.00000000E+00  0.00000000E+00  0.00000000E+00
  0.00000000E+00  0.00000000E+00  0.00000000E+00
  0.00000000E+00  0.00000000E+00  0.00000000E+00
  0.00000000E+00  0.00000000E+00  0.00000000E+00
  0.00000000E+00  0.00000000E+00  0.00000000E+00
  0.00000000E+00  0.00000000E+00  0.00000000E+00
  0.00000000E+00  0.00000000E+00  0.00000000E+00
  0.00000000E+00  0.00000000E+00  0.00000000E+00
  0.00000000E+00  0.00000000E+00  0.00000000E+00
  0.00000000E+00  0.00000000E+00  0.00000000E+00
  0.00000000E+00  0.00000000E+00  0.00000000E+00
  0.00000000E+00  0.00000000E+00  0.00000000E+00
  0.00000000E+00  0.00000000E+00  0.00000000E+00
  0.00000000E+00  0.00000000E+00  0.00000000E+00
  0.00000000E+00  0.00000000E+00  0.00000000E+00
  0.00000000E+00  0.00000000E+00  0.00000000E+00
  0.00000000E+00  0.00000000E+00  0.00000000E+00
  0.00000000E+00  0.00000000E+00  0.00000000E+00
  0.00000000E+00  0.00000000E+00  0.00000000E+00
  0.00000000E+00  0.00000000E+00  0.00000000E+00
  0.00000000E+00  0.00000000E+00  0.00000000E+00
  0.00000000E+00  0.00000000E+00  0.00000000E+00
  0.00000000E+00  0.00000000E+00  0.00000000E+00
  0.00000000E+00  0.00000000E+00  0.00000000E+00
  0.00000000E+00  0.00000000E+00  0.00000000E+00
  0.00000000E+00  0.00000000E+00  0.00000000E+00
  0.00000000E+00  0.00000000E+00  0.00000000E+00
  0.00000000E+00  0.00000000E+00  0.00000000E+00
  0.00000000E+00  0.00000000E+00  0.00000000E+00
  0.00000000E+00  0.00000000E+00  0.00000000E+00
  0.00000000E+00  0.00000000E+00  0.00000000E+00
  0.00000000E+00  0.00000000E+00  0.00000000E+00
  0.00000000E+00  0.00000000E+00  0.00000000E+00
  0.00000000E+00  0.00000000E+00  0.00000000E+00
  0.00000000E+00  0.00000000E+00  0.00000000E+00
  0.00000000E+00  0.00000000E+00  0.00000000E+00
  0.00000000E+00  0.00000000E+00  0.00000000E+00
  0.00000000E+00  0.00000000E+00  0.00000000E+00
  0.00000000E+00  0.00000000E+00  0.00000000E+00
  0.00000000E+00  0.00000000E+00  0.00000000E+00
