C4                                      
   1.00000000000000     
    14.8063199999999995    0.0000000000000000    0.0000000000000000
    -7.4031599999999997   12.8226492600000004    0.0000000000000000
     0.0000000000000000    0.0000000000000000   17.0000000000000000
   C    Cu   Au
    72     2     1
Direct
  0.0558416990016752  0.1112721223010951  0.3824100797319971
  0.0005447455507053  0.0003007069167751  0.3826857206770029
  0.0558443860423523  0.2779505410567111  0.3813981429055815
  0.0004629395001317  0.1669111529023084  0.3820500503127420
  0.0558897168304924  0.4446450756394782  0.3809362794903848
  0.0004762006291870  0.3336274425643495  0.3811905514553828
  0.0559361916014183  0.6113106241950632  0.3811351837978663
  0.0005215786626778  0.5003066010825705  0.3808390786440654
  0.0559563641307221  0.7780135187875032  0.3819691190871310
  0.0005595162429373  0.6669745248028818  0.3812457368831588
  0.0559100186677881  0.9446473823873873  0.3826676457053964
  0.0005895669046723  0.8336630461530561  0.3823056913747394
  0.2222185385312727  0.1110013208958165  0.3837022577029217
  0.1669903344114516  0.0000720652762212  0.3832283027035430
  0.2220862196816782  0.2776843485362619  0.3821968381307101
  0.1668586879406178  0.1666875201686366  0.3827246687657393
  0.2223227710266400  0.4446660973308454  0.3814567743527633
  0.1668910730844360  0.3335421176873439  0.3813468994609934
  0.2223896609625911  0.6113684410727842  0.3819060278121569
  0.1669792858741275  0.5003739878155429  0.3812719178409054
  0.2225454619771980  0.7780150578578002  0.3827167113550303
  0.1670251416159800  0.6669854564261755  0.3818262408403754
  0.2225229170920855  0.9445922054055274  0.3835610197803803
  0.1671120566116286  0.8336090336752520  0.3826867732994543
  0.3891383494984524  0.1109863821294823  0.3855966774104829
  0.3337368470169153  0.0002091728887521  0.3844797635385859
  0.3879192557969802  0.2770066093051256  0.3868377969266348
  0.3332799246119791  0.1663528612258816  0.3854642852543293
  0.3880445134427077  0.4441723838663663  0.3839893193159938
  0.3330183797681059  0.3330999994966604  0.3837317859784335
  0.3888730142535834  0.6116410724742920  0.3842731024036397
  0.3332846332082937  0.5002714410643279  0.3826938914728828
  0.3892138469807875  0.7781914312808382  0.3839588483414715
  0.3335394620506662  0.6671417851248265  0.3832467110192610
  0.3892942233187355  0.9446370854473614  0.3841831367552615
  0.3337247090361544  0.8337088714442231  0.3835945862847225
  0.5561523915740096  0.1110571182175306  0.3844643969909143
  0.5004537453755660  0.0001351509654057  0.3842235774103884
  0.5565686036768440  0.2769349140846913  0.3870587514904500
  0.5005231731660729  0.1663062748256152  0.3857790571018072
  0.5568876511100669  0.4448823494059440  0.3883990979028624
  0.5000935636753070  0.3323776207879945  0.3904724005936728
  0.5563370903654175  0.6125632295438592  0.3907624627989179
  0.4995465756364581  0.5000732741611529  0.3886065496770925
  0.5559166816073358  0.7786028561452625  0.3859905877073615
  0.4998753662478279  0.6679939392551404  0.3874019947123628
  0.5560100603715838  0.9448035673168675  0.3842494288198068
  0.5003002927418692  0.8338768842067026  0.3846389605022935
  0.7227321092892254  0.1112429685509753  0.3834658613406887
  0.6671682928864158  0.0003057279434771  0.3841440757069918
  0.7229242624176067  0.2778243867292574  0.3829191177750744
  0.6672443492194020  0.1667668109593308  0.3837339902360810
  0.7231676962595941  0.4446995774534557  0.3822746230901970
  0.6676016715982982  0.3333338480970980  0.3838704065719796
  0.7234208626309169  0.6118647985407080  0.3835249018394222
  0.6683796382628131  0.5007813380723931  0.3836513989891017
  0.7231840593774308  0.7786032969139995  0.3854646241084083
  0.6685133626387341  0.6679440009934865  0.3868464324522947
  0.7227279795779822  0.9447356468112105  0.3844841419951166
  0.6673159150594614  0.8339572058588445  0.3856792224296086
  0.8893278754578020  0.1113248661667825  0.3826850424656314
  0.8339395051652687  0.0003514473912247  0.3835452297088580
  0.8893999809889976  0.2779512324326632  0.3817062964032019
  0.8339068854907055  0.1669248420143319  0.3826132209142870
  0.8894453396835331  0.4445883387399334  0.3810033339929646
  0.8340573646076948  0.3335935210117000  0.3816503450389988
  0.8895316076458570  0.6114112945385770  0.3810678219154866
  0.8341207568020792  0.5003062716893965  0.3810763558148054
  0.8895797660422815  0.7782580707394544  0.3826012617622965
  0.8343524354477481  0.6672662008665995  0.3819572413926693
  0.8894733723085082  0.9448782669142588  0.3832236238741942
  0.8342416256232923  0.8339557905778960  0.3836470707456030
  0.5364171631231258  0.5586264982850082  0.5075223515683405
  0.5205595821156734  0.3845172125309162  0.5074362898234952
  0.5306549331734232  0.4723362935753741  0.6316941555241584
 
  0.00000000E+00  0.00000000E+00  0.00000000E+00
  0.00000000E+00  0.00000000E+00  0.00000000E+00
  0.00000000E+00  0.00000000E+00  0.00000000E+00
  0.00000000E+00  0.00000000E+00  0.00000000E+00
  0.00000000E+00  0.00000000E+00  0.00000000E+00
  0.00000000E+00  0.00000000E+00  0.00000000E+00
  0.00000000E+00  0.00000000E+00  0.00000000E+00
  0.00000000E+00  0.00000000E+00  0.00000000E+00
  0.00000000E+00  0.00000000E+00  0.00000000E+00
  0.00000000E+00  0.00000000E+00  0.00000000E+00
  0.00000000E+00  0.00000000E+00  0.00000000E+00
  0.00000000E+00  0.00000000E+00  0.00000000E+00
  0.00000000E+00  0.00000000E+00  0.00000000E+00
  0.00000000E+00  0.00000000E+00  0.00000000E+00
  0.00000000E+00  0.00000000E+00  0.00000000E+00
  0.00000000E+00  0.00000000E+00  0.00000000E+00
  0.00000000E+00  0.00000000E+00  0.00000000E+00
  0.00000000E+00  0.00000000E+00  0.00000000E+00
  0.00000000E+00  0.00000000E+00  0.00000000E+00
  0.00000000E+00  0.00000000E+00  0.00000000E+00
  0.00000000E+00  0.00000000E+00  0.00000000E+00
  0.00000000E+00  0.00000000E+00  0.00000000E+00
  0.00000000E+00  0.00000000E+00  0.00000000E+00
  0.00000000E+00  0.00000000E+00  0.00000000E+00
  0.00000000E+00  0.00000000E+00  0.00000000E+00
  0.00000000E+00  0.00000000E+00  0.00000000E+00
  0.00000000E+00  0.00000000E+00  0.00000000E+00
  0.00000000E+00  0.00000000E+00  0.00000000E+00
  0.00000000E+00  0.00000000E+00  0.00000000E+00
  0.00000000E+00  0.00000000E+00  0.00000000E+00
  0.00000000E+00  0.00000000E+00  0.00000000E+00
  0.00000000E+00  0.00000000E+00  0.00000000E+00
  0.00000000E+00  0.00000000E+00  0.00000000E+00
  0.00000000E+00  0.00000000E+00  0.00000000E+00
  0.00000000E+00  0.00000000E+00  0.00000000E+00
  0.00000000E+00  0.00000000E+00  0.00000000E+00
  0.00000000E+00  0.00000000E+00  0.00000000E+00
  0.00000000E+00  0.00000000E+00  0.00000000E+00
  0.00000000E+00  0.00000000E+00  0.00000000E+00
  0.00000000E+00  0.00000000E+00  0.00000000E+00
  0.00000000E+00  0.00000000E+00  0.00000000E+00
  0.00000000E+00  0.00000000E+00  0.00000000E+00
  0.00000000E+00  0.00000000E+00  0.00000000E+00
  0.00000000E+00  0.00000000E+00  0.00000000E+00
  0.00000000E+00  0.00000000E+00  0.00000000E+00
  0.00000000E+00  0.00000000E+00  0.00000000E+00
  0.00000000E+00  0.00000000E+00  0.00000000E+00
  0.00000000E+00  0.00000000E+00  0.00000000E+00
  0.00000000E+00  0.00000000E+00  0.00000000E+00
  0.00000000E+00  0.00000000E+00  0.00000000E+00
  0.00000000E+00  0.00000000E+00  0.00000000E+00
  0.00000000E+00  0.00000000E+00  0.00000000E+00
  0.00000000E+00  0.00000000E+00  0.00000000E+00
  0.00000000E+00  0.00000000E+00  0.00000000E+00
  0.00000000E+00  0.00000000E+00  0.00000000E+00
  0.00000000E+00  0.00000000E+00  0.00000000E+00
  0.00000000E+00  0.00000000E+00  0.00000000E+00
  0.00000000E+00  0.00000000E+00  0.00000000E+00
  0.00000000E+00  0.00000000E+00  0.00000000E+00
  0.00000000E+00  0.00000000E+00  0.00000000E+00
  0.00000000E+00  0.00000000E+00  0.00000000E+00
  0.00000000E+00  0.00000000E+00  0.00000000E+00
  0.00000000E+00  0.00000000E+00  0.00000000E+00
  0.00000000E+00  0.00000000E+00  0.00000000E+00
  0.00000000E+00  0.00000000E+00  0.00000000E+00
  0.00000000E+00  0.00000000E+00  0.00000000E+00
  0.00000000E+00  0.00000000E+00  0.00000000E+00
  0.00000000E+00  0.00000000E+00  0.00000000E+00
  0.00000000E+00  0.00000000E+00  0.00000000E+00
  0.00000000E+00  0.00000000E+00  0.00000000E+00
  0.00000000E+00  0.00000000E+00  0.00000000E+00
  0.00000000E+00  0.00000000E+00  0.00000000E+00
  0.00000000E+00  0.00000000E+00  0.00000000E+00
  0.00000000E+00  0.00000000E+00  0.00000000E+00
  0.00000000E+00  0.00000000E+00  0.00000000E+00
