C4                                      
   1.00000000000000     
    14.8063199999999995    0.0000000000000000    0.0000000000000000
    -7.4031599999999997   12.8226492600000004    0.0000000000000000
     0.0000000000000000    0.0000000000000000   18.0000000000000000
   C    Pd
    72     4
Direct
  0.0551799172490348  0.1108515869106128  0.3629579006281602
  0.9998929245614789  0.9999963151958511  0.3618925293748845
  0.0542654964595712  0.2771020997230877  0.3652310055389734
  0.9994497862977525  0.1662590272612547  0.3633832051850234
  0.0550125789799125  0.4445942526319868  0.3628963768850682
  0.9993073075467223  0.3331913198433867  0.3628986659403992
  0.0554544842342537  0.6112994304108170  0.3616803876838475
  0.9997897767183161  0.5001123270615437  0.3615816806829031
  0.0555441209662462  0.7779016303419297  0.3613592446352456
  0.9999620054146874  0.6668307432901273  0.3613460106267965
  0.0555332728535305  0.9444717466925212  0.3616582847796366
  0.0000446689934037  0.8335016876919070  0.3613823999100063
  0.2222802483825745  0.1108657319002972  0.3629723679487640
  0.1667059470334848  0.0000101916681672  0.3618922506807820
  0.2215180860757400  0.2764381220818848  0.3669069899376822
  0.1664018113576020  0.1662095399160393  0.3638371700517666
  0.2222160935542377  0.4453434280093518  0.3696964070838717
  0.1657381694426832  0.3324004988159288  0.3696814087091553
  0.2220872777804033  0.6115111519913796  0.3633990372529183
  0.1660584182677312  0.5006589208288617  0.3652428116050430
  0.2221736838821826  0.7779134234104035  0.3615421770858376
  0.1664928104322740  0.6669439805068862  0.3620584838598333
  0.2222636436242595  0.9444418770072929  0.3615225390012284
  0.1666277066901642  0.8334462849632516  0.3613627345402222
  0.3890059245057103  0.1108401223489466  0.3620252302354245
  0.3333435969520835  0.9998774304306295  0.3615083325040374
  0.3894170762838272  0.2771223639737670  0.3652872161545915
  0.3334136396153724  0.1662772512149573  0.3633910452883313
  0.3897104246720318  0.4453418384625678  0.3697631251509819
  0.3332461584743385  0.3324163092838148  0.3697571739904788
  0.3890651271251002  0.6115459081398740  0.3638521106913259
  0.3339520049453952  0.5013110965515892  0.3669287371539127
  0.3887969667298634  0.7777841868398525  0.3618951130637456
  0.3332183557391986  0.6669183873371907  0.3629657694508808
  0.3888865374243480  0.9443502769850483  0.3613399752362625
  0.3332593672508679  0.8333668010083173  0.3615364946124515
  0.5555386491532630  0.1109509268940627  0.3612752858240356
  0.4999455656198037  0.9998850943114235  0.3613207543839962
  0.5556870686238611  0.2776717671218307  0.3615665030135418
  0.5000408420003168  0.1664809018001208  0.3616288658233131
  0.5561594670160517  0.4446043332651328  0.3629513196676157
  0.5004588117067357  0.3332018081496599  0.3629409615196337
  0.5560245930931345  0.6115013331472596  0.3634106434754187
  0.5011813495283164  0.5006561458001357  0.3652868582762139
  0.5555915858817713  0.7777788968916894  0.3618788215230353
  0.5002951148917774  0.6669137862605368  0.3629789970512505
  0.5554453525992713  0.9442935228931333  0.3613306685116768
  0.4999633485056876  0.8333236548547021  0.3616268867602912
  0.7220183813076133  0.1109539843952163  0.3613125345007475
  0.6665458690027748  0.9998944059686323  0.3613227630625246
  0.7221532164830577  0.2776907944828224  0.3609051928361922
  0.6665769249854492  0.1665453345876955  0.3611251497838595
  0.7223499459719847  0.4444524012474886  0.3609961282196181
  0.6668093180941383  0.3333605795727976  0.3609875190475975
  0.7224507295279921  0.6113058127637245  0.3616909661397401
  0.6669120867314220  0.5001253576644018  0.3615942794406450
  0.7223639262215471  0.7779159068460046  0.3615294401245066
  0.6670540533402303  0.6669419848094478  0.3620611366119704
  0.7220759559503591  0.9443609216453623  0.3613456215425117
  0.6667260543641262  0.8333675844077817  0.3615198210792698
  0.8884233991878219  0.1108254412567646  0.3620596410772237
  0.8331428190107175  0.9998700316862923  0.3615304200692506
  0.8885689232224649  0.2776694479987825  0.3615809594735282
  0.8330365482342188  0.1664767321522902  0.3616792986042370
  0.8886885822025761  0.4444347307465151  0.3609907152481213
  0.8331529666322979  0.3333580031872145  0.3609826989204095
  0.8889205622549596  0.6112383307000329  0.3611889680594302
  0.8333517161460335  0.5001021474748413  0.3609413046734531
  0.8889510823104629  0.7779010164747007  0.3613706024738548
  0.8334771333825159  0.6668353307039538  0.3613414735667959
  0.8887817483226499  0.9444244214188871  0.3615361971838098
  0.8334306473172148  0.8334405370056288  0.3613702240370458
  0.3261866584845379  0.4869019450032752  0.5981408331398441
  0.1915047079463079  0.3888639233718436  0.4899533650539638
  0.2280841533569458  0.2907841088176895  0.5981371476761765
  0.3631477248711690  0.3888009914889494  0.4901066193630896
 
  0.00000000E+00  0.00000000E+00  0.00000000E+00
  0.00000000E+00  0.00000000E+00  0.00000000E+00
  0.00000000E+00  0.00000000E+00  0.00000000E+00
  0.00000000E+00  0.00000000E+00  0.00000000E+00
  0.00000000E+00  0.00000000E+00  0.00000000E+00
  0.00000000E+00  0.00000000E+00  0.00000000E+00
  0.00000000E+00  0.00000000E+00  0.00000000E+00
  0.00000000E+00  0.00000000E+00  0.00000000E+00
  0.00000000E+00  0.00000000E+00  0.00000000E+00
  0.00000000E+00  0.00000000E+00  0.00000000E+00
  0.00000000E+00  0.00000000E+00  0.00000000E+00
  0.00000000E+00  0.00000000E+00  0.00000000E+00
  0.00000000E+00  0.00000000E+00  0.00000000E+00
  0.00000000E+00  0.00000000E+00  0.00000000E+00
  0.00000000E+00  0.00000000E+00  0.00000000E+00
  0.00000000E+00  0.00000000E+00  0.00000000E+00
  0.00000000E+00  0.00000000E+00  0.00000000E+00
  0.00000000E+00  0.00000000E+00  0.00000000E+00
  0.00000000E+00  0.00000000E+00  0.00000000E+00
  0.00000000E+00  0.00000000E+00  0.00000000E+00
  0.00000000E+00  0.00000000E+00  0.00000000E+00
  0.00000000E+00  0.00000000E+00  0.00000000E+00
  0.00000000E+00  0.00000000E+00  0.00000000E+00
  0.00000000E+00  0.00000000E+00  0.00000000E+00
  0.00000000E+00  0.00000000E+00  0.00000000E+00
  0.00000000E+00  0.00000000E+00  0.00000000E+00
  0.00000000E+00  0.00000000E+00  0.00000000E+00
  0.00000000E+00  0.00000000E+00  0.00000000E+00
  0.00000000E+00  0.00000000E+00  0.00000000E+00
  0.00000000E+00  0.00000000E+00  0.00000000E+00
  0.00000000E+00  0.00000000E+00  0.00000000E+00
  0.00000000E+00  0.00000000E+00  0.00000000E+00
  0.00000000E+00  0.00000000E+00  0.00000000E+00
  0.00000000E+00  0.00000000E+00  0.00000000E+00
  0.00000000E+00  0.00000000E+00  0.00000000E+00
  0.00000000E+00  0.00000000E+00  0.00000000E+00
  0.00000000E+00  0.00000000E+00  0.00000000E+00
  0.00000000E+00  0.00000000E+00  0.00000000E+00
  0.00000000E+00  0.00000000E+00  0.00000000E+00
  0.00000000E+00  0.00000000E+00  0.00000000E+00
  0.00000000E+00  0.00000000E+00  0.00000000E+00
  0.00000000E+00  0.00000000E+00  0.00000000E+00
  0.00000000E+00  0.00000000E+00  0.00000000E+00
  0.00000000E+00  0.00000000E+00  0.00000000E+00
  0.00000000E+00  0.00000000E+00  0.00000000E+00
  0.00000000E+00  0.00000000E+00  0.00000000E+00
  0.00000000E+00  0.00000000E+00  0.00000000E+00
  0.00000000E+00  0.00000000E+00  0.00000000E+00
  0.00000000E+00  0.00000000E+00  0.00000000E+00
  0.00000000E+00  0.00000000E+00  0.00000000E+00
  0.00000000E+00  0.00000000E+00  0.00000000E+00
  0.00000000E+00  0.00000000E+00  0.00000000E+00
  0.00000000E+00  0.00000000E+00  0.00000000E+00
  0.00000000E+00  0.00000000E+00  0.00000000E+00
  0.00000000E+00  0.00000000E+00  0.00000000E+00
  0.00000000E+00  0.00000000E+00  0.00000000E+00
  0.00000000E+00  0.00000000E+00  0.00000000E+00
  0.00000000E+00  0.00000000E+00  0.00000000E+00
  0.00000000E+00  0.00000000E+00  0.00000000E+00
  0.00000000E+00  0.00000000E+00  0.00000000E+00
  0.00000000E+00  0.00000000E+00  0.00000000E+00
  0.00000000E+00  0.00000000E+00  0.00000000E+00
  0.00000000E+00  0.00000000E+00  0.00000000E+00
  0.00000000E+00  0.00000000E+00  0.00000000E+00
  0.00000000E+00  0.00000000E+00  0.00000000E+00
  0.00000000E+00  0.00000000E+00  0.00000000E+00
  0.00000000E+00  0.00000000E+00  0.00000000E+00
  0.00000000E+00  0.00000000E+00  0.00000000E+00
  0.00000000E+00  0.00000000E+00  0.00000000E+00
  0.00000000E+00  0.00000000E+00  0.00000000E+00
  0.00000000E+00  0.00000000E+00  0.00000000E+00
  0.00000000E+00  0.00000000E+00  0.00000000E+00
  0.00000000E+00  0.00000000E+00  0.00000000E+00
  0.00000000E+00  0.00000000E+00  0.00000000E+00
  0.00000000E+00  0.00000000E+00  0.00000000E+00
  0.00000000E+00  0.00000000E+00  0.00000000E+00
