Comment                                 
   1.00000000000000     
    17.0000000000000000    0.0000000000000000    0.0000000000000000
     0.0000000000000000   17.0000000000000000    0.0000000000000000
     0.0000000000000000    0.0000000000000000   17.0000000000000000
   Pt   Au
     1     3
Direct
  0.4186777199238069  0.4634845879595767  0.5216502334399705
  0.5504130766026417  0.4728527624184656  0.5976946913379964
  0.4976087088909023  0.5976074542716088  0.5166000122097003
  0.3452397945826479  0.5890176053503481  0.4761173530123378
 
  0.00000000E+00  0.00000000E+00  0.00000000E+00
  0.00000000E+00  0.00000000E+00  0.00000000E+00
  0.00000000E+00  0.00000000E+00  0.00000000E+00
  0.00000000E+00  0.00000000E+00  0.00000000E+00
