C4                                      
   1.00000000000000     
    14.8063199999999995    0.0000000000000000    0.0000000000000000
    -7.4031599999999997   12.8226492600000004    0.0000000000000000
     0.0000000000000000    0.0000000000000000   18.0000000000000000
   C    Ni   Au
    72     3     1
Direct
  0.0550665847862106  0.1106934520880642  0.3655900163053971
  0.9999576315404894  0.0000050681879529  0.3633526707795482
  0.0537303141576615  0.2768298983408783  0.3673312341335304
  0.9992236950734679  0.1660749293191230  0.3655502389796297
  0.0549449801779147  0.4447565982067943  0.3621459419532869
  0.9991852499532001  0.3331708636020423  0.3631836129133248
  0.0554060544979222  0.6114452741676146  0.3600341509759630
  0.9997002178513270  0.5003179153383357  0.3598641390567252
  0.0555819868549605  0.7780315507677358  0.3604220108075680
  0.0000147146627256  0.6670262829897027  0.3594496453234726
  0.0555909803467003  0.9445154306934072  0.3625418364135555
  0.0001304539264879  0.8335942378529850  0.3608858340145957
  0.2222933973018542  0.1106934520880642  0.3655900163053971
  0.1667141066474613  0.0000050681879529  0.3633526707795482
  0.2213265958859196  0.2759866617718316  0.3715455014386038
  0.1662728171225751  0.1658789642451595  0.3676245106652729
  0.2208322838208261  0.4447815902258228  0.3724126743567524
  0.1652015275347409  0.3320881511200611  0.3724094097967807
  0.2217781066401230  0.6118623106132901  0.3649191614991807
  0.1654961107886024  0.5008619967245309  0.3655017242718301
  0.2222243063791112  0.7782710624800444  0.3622241524845720
  0.1664382414618260  0.6671904695368838  0.3619078563208475
  0.2223321646969012  0.9445459004584009  0.3624267461689499
  0.1666628431804611  0.8336167559262506  0.3614453994143361
  0.3891707867982035  0.1109050324724024  0.3632354715739723
  0.3333850176933808  0.9999931056765945  0.3626558122411083
  0.3897661141832174  0.2768298983408783  0.3673312341335304
  0.3335179042456460  0.1660749293191230  0.3655502389796297
  0.3906158364049901  0.4447815902258228  0.3724126743567524
  0.3335532935853252  0.3320881511200611  0.3724094097967807
  0.3900022881326706  0.6133380462653264  0.3726942070277133
  0.3340447839316170  0.5014228978632360  0.3741981089963602
  0.3889744385653273  0.7786042182459951  0.3660023109158956
  0.3329922433682313  0.6681445802520827  0.3685897533257076
  0.3890270709882557  0.9447004336021507  0.3627426768152091
  0.3332957243998820  0.8338995211613280  0.3635451455204191
  0.5556958806403784  0.1111269414916123  0.3616081195297340
  0.5001283909166716  0.0001920241257949  0.3626005514158095
  0.5558802349215028  0.2777349322611613  0.3612542440526951
  0.5001897319924140  0.1666085662517247  0.3620135473809967
  0.5564781580288738  0.4447565982067943  0.3621459419532869
  0.5006522736488392  0.3331708636020423  0.3631836129133248
  0.5567507339731677  0.6118623106132901  0.3649191614991807
  0.5020325459359256  0.5008619967245309  0.3655017242718301
  0.5562963096806683  0.7786042182459951  0.3660023109158956
  0.5018190068838564  0.6681445802520827  0.3685897533257076
  0.5556584412953001  0.9446503525905996  0.3633533686726622
  0.5002726627547318  0.8338786555094657  0.3653734447228203
  0.7220975908512273  0.1111269414916123  0.3616081195297340
  0.6667303032091212  0.0001920241257949  0.3626005514158095
  0.7222338654159657  0.2778012008319308  0.3597308786123463
  0.6666787913129824  0.1666909126259668  0.3608562636757711
  0.7225208679885924  0.4445572074359134  0.3589884790488753
  0.6669617879522249  0.3334590866223621  0.3596123960918618
  0.7227057496696858  0.6114452741676146  0.3600341509759630
  0.6672843574870058  0.5003179153383357  0.3598641390567252
  0.7227132961009275  0.7782710624800444  0.3622241524845720
  0.6674188880750407  0.6671904695368838  0.3619078563208475
  0.7223398926138955  0.9447004336021507  0.3627426768152091
  0.6672704567614431  0.8338995211613280  0.3635451455204191
  0.8884007856741931  0.1109050324724024  0.3632354715739723
  0.8332747479832179  0.9999931056765945  0.3626558122411083
  0.8885212273396661  0.2777349322611613  0.3612542440526951
  0.8330855042593086  0.1666085662517247  0.3620135473809967
  0.8887028694473216  0.4445572074359134  0.3589884790488753
  0.8331639686701422  0.3334590866223621  0.3596123960918618
  0.8890251204494248  0.6113837108988420  0.3588455692547612
  0.8334599142793309  0.5002531585586638  0.3585926624988574
  0.8891160939127758  0.7780315507677358  0.3604220108075680
  0.8336782383269679  0.6670262829897027  0.3594496453234726
  0.8888802657615003  0.9445459004584009  0.3624267461689499
  0.8336205727458008  0.8336167559262506  0.3614453994143361
  0.2009946758443419  0.3915463100443617  0.4780388483847418
  0.3602808304504279  0.5538949909008508  0.4780990113542245
  0.3572183042000248  0.3915463100443617  0.4780388483847418
  0.3055747749588775  0.4444828699177634  0.5971122389749226
 
  0.00000000E+00  0.00000000E+00  0.00000000E+00
  0.00000000E+00  0.00000000E+00  0.00000000E+00
  0.00000000E+00  0.00000000E+00  0.00000000E+00
  0.00000000E+00  0.00000000E+00  0.00000000E+00
  0.00000000E+00  0.00000000E+00  0.00000000E+00
  0.00000000E+00  0.00000000E+00  0.00000000E+00
  0.00000000E+00  0.00000000E+00  0.00000000E+00
  0.00000000E+00  0.00000000E+00  0.00000000E+00
  0.00000000E+00  0.00000000E+00  0.00000000E+00
  0.00000000E+00  0.00000000E+00  0.00000000E+00
  0.00000000E+00  0.00000000E+00  0.00000000E+00
  0.00000000E+00  0.00000000E+00  0.00000000E+00
  0.00000000E+00  0.00000000E+00  0.00000000E+00
  0.00000000E+00  0.00000000E+00  0.00000000E+00
  0.00000000E+00  0.00000000E+00  0.00000000E+00
  0.00000000E+00  0.00000000E+00  0.00000000E+00
  0.00000000E+00  0.00000000E+00  0.00000000E+00
  0.00000000E+00  0.00000000E+00  0.00000000E+00
  0.00000000E+00  0.00000000E+00  0.00000000E+00
  0.00000000E+00  0.00000000E+00  0.00000000E+00
  0.00000000E+00  0.00000000E+00  0.00000000E+00
  0.00000000E+00  0.00000000E+00  0.00000000E+00
  0.00000000E+00  0.00000000E+00  0.00000000E+00
  0.00000000E+00  0.00000000E+00  0.00000000E+00
  0.00000000E+00  0.00000000E+00  0.00000000E+00
  0.00000000E+00  0.00000000E+00  0.00000000E+00
  0.00000000E+00  0.00000000E+00  0.00000000E+00
  0.00000000E+00  0.00000000E+00  0.00000000E+00
  0.00000000E+00  0.00000000E+00  0.00000000E+00
  0.00000000E+00  0.00000000E+00  0.00000000E+00
  0.00000000E+00  0.00000000E+00  0.00000000E+00
  0.00000000E+00  0.00000000E+00  0.00000000E+00
  0.00000000E+00  0.00000000E+00  0.00000000E+00
  0.00000000E+00  0.00000000E+00  0.00000000E+00
  0.00000000E+00  0.00000000E+00  0.00000000E+00
  0.00000000E+00  0.00000000E+00  0.00000000E+00
  0.00000000E+00  0.00000000E+00  0.00000000E+00
  0.00000000E+00  0.00000000E+00  0.00000000E+00
  0.00000000E+00  0.00000000E+00  0.00000000E+00
  0.00000000E+00  0.00000000E+00  0.00000000E+00
  0.00000000E+00  0.00000000E+00  0.00000000E+00
  0.00000000E+00  0.00000000E+00  0.00000000E+00
  0.00000000E+00  0.00000000E+00  0.00000000E+00
  0.00000000E+00  0.00000000E+00  0.00000000E+00
  0.00000000E+00  0.00000000E+00  0.00000000E+00
  0.00000000E+00  0.00000000E+00  0.00000000E+00
  0.00000000E+00  0.00000000E+00  0.00000000E+00
  0.00000000E+00  0.00000000E+00  0.00000000E+00
  0.00000000E+00  0.00000000E+00  0.00000000E+00
  0.00000000E+00  0.00000000E+00  0.00000000E+00
  0.00000000E+00  0.00000000E+00  0.00000000E+00
  0.00000000E+00  0.00000000E+00  0.00000000E+00
  0.00000000E+00  0.00000000E+00  0.00000000E+00
  0.00000000E+00  0.00000000E+00  0.00000000E+00
  0.00000000E+00  0.00000000E+00  0.00000000E+00
  0.00000000E+00  0.00000000E+00  0.00000000E+00
  0.00000000E+00  0.00000000E+00  0.00000000E+00
  0.00000000E+00  0.00000000E+00  0.00000000E+00
  0.00000000E+00  0.00000000E+00  0.00000000E+00
  0.00000000E+00  0.00000000E+00  0.00000000E+00
  0.00000000E+00  0.00000000E+00  0.00000000E+00
  0.00000000E+00  0.00000000E+00  0.00000000E+00
  0.00000000E+00  0.00000000E+00  0.00000000E+00
  0.00000000E+00  0.00000000E+00  0.00000000E+00
  0.00000000E+00  0.00000000E+00  0.00000000E+00
  0.00000000E+00  0.00000000E+00  0.00000000E+00
  0.00000000E+00  0.00000000E+00  0.00000000E+00
  0.00000000E+00  0.00000000E+00  0.00000000E+00
  0.00000000E+00  0.00000000E+00  0.00000000E+00
  0.00000000E+00  0.00000000E+00  0.00000000E+00
  0.00000000E+00  0.00000000E+00  0.00000000E+00
  0.00000000E+00  0.00000000E+00  0.00000000E+00
  0.00000000E+00  0.00000000E+00  0.00000000E+00
  0.00000000E+00  0.00000000E+00  0.00000000E+00
  0.00000000E+00  0.00000000E+00  0.00000000E+00
  0.00000000E+00  0.00000000E+00  0.00000000E+00
