C4                                      
   1.00000000000000     
    14.8063199999999995    0.0000000000000000    0.0000000000000000
    -7.4031599999999997   12.8226492600000004    0.0000000000000000
     0.0000000000000000    0.0000000000000000   18.0000000000000000
   C    Pt   Au
    72     2     2
Direct
  0.0537776078489927  0.1108793847681753  0.3596304541012429
  0.9982991715244296  0.9998613770593536  0.3598500560347944
  0.0540569961816857  0.2776983070231793  0.3588507100180749
  0.9983950006804250  0.1665114501199696  0.3591364070291263
  0.0541943835671788  0.4444301831344930  0.3593997706711747
  0.9986532404326951  0.3333477768655086  0.3593997706711747
  0.0542649196425771  0.6113343203739916  0.3607290296338945
  0.9987781176565207  0.5001592596986555  0.3610903401294365
  0.0542057692540752  0.7779931796479289  0.3607208944871587
  0.9990190060401432  0.6670584162205131  0.3618135428562681
  0.0538016680980249  0.9442618160401821  0.3602392923903963
  0.9985113449589917  0.8333454637188495  0.3608823889643844
  0.2201246381814883  0.1108432100875660  0.3621872354895856
  0.1648882140978145  0.9998896423628523  0.3609362020141944
  0.2205345161948742  0.2776732388088661  0.3608714632751315
  0.1649153024955581  0.1665415918814830  0.3608850138043636
  0.2206600754526349  0.4444433814702791  0.3592427856800242
  0.1651057439823589  0.3333345785297226  0.3592427856800242
  0.2207725005604573  0.6112665898800245  0.3591364070291263
  0.1652477791585056  0.5000797329768218  0.3588507100180749
  0.2207751233420510  0.7779504092633189  0.3598607679092325
  0.1653823415260050  0.6669465428044319  0.3595634980339213
  0.2205106080041475  0.9444820190778884  0.3611440061278657
  0.1652659658515532  0.8335741924327991  0.3602687056879503
  0.3867393348949832  0.1107752631452783  0.3658295759013299
  0.3317228399081955  0.0001853715715754  0.3625936141806676
  0.3853199259506752  0.2767645905319540  0.3703072122834925
  0.3310921654669414  0.1663533200657383  0.3659970514498383
  0.3871332489063306  0.4447254170204360  0.3647491494132993
  0.3312968818858977  0.3330525429795657  0.3647491494132993
  0.3872626606140912  0.6112364481185182  0.3608850138043636
  0.3317503673859861  0.5001048011911351  0.3608714632751315
  0.3873267444650850  0.7779166629406546  0.3598500560347944
  0.3317873130808238  0.6668986552318259  0.3596304541012429
  0.3873468649267195  0.9445611507899514  0.3615611425390881
  0.3319166382361658  0.8336454781150238  0.3600847812811239
  0.5540515179891798  0.1107951142908732  0.3651841559422877
  0.4985548339254464  0.0001661984957551  0.3622372480664708
  0.5525924804344982  0.2755747903717065  0.3756305149544517
  0.4980912636424648  0.1662350242294082  0.3682208444978201
  0.5537232011945648  0.4461160244113742  0.3822197278720836
  0.4964962167831857  0.3316619355886274  0.3822197278720836
  0.5536277954012050  0.6114247199342628  0.3659970514498383
  0.4974444154187196  0.5010134494680472  0.3703072122834925
  0.5538875217349570  0.7778883976371489  0.3609362020141944
  0.4981705180939286  0.6669348299124351  0.3621872354895856
  0.5540548212401433  0.9444325562811500  0.3608823889643844
  0.4984289320578341  0.8335162039598174  0.3602392923903963
  0.7208495398196177  0.1107196237794881  0.3618135428562681
  0.6651016796061384  0.9997848603520723  0.3607208944871587
  0.7214954627181882  0.2765941628498467  0.3691811129494340
  0.6652683779924899  0.1661377350303965  0.3652551683992229
  0.7223238035363551  0.4461823654607926  0.3800157263309885
  0.6650304880755655  0.3315955945392091  0.3800157263309885
  0.7207451894130656  0.6115430157705930  0.3682208444978201
  0.6659067800627838  0.5022032496282947  0.3756305149544517
  0.7204264283366157  0.7775926684284258  0.3625936141806676
  0.6648531517497034  0.6670027768547229  0.3658295759013299
  0.7205807234187560  0.9442038275672004  0.3602687056879503
  0.6649176589262638  0.8332960009221111  0.3611440061278657
  0.8873247587215829  0.1108314971955693  0.3595634980339213
  0.8317137940787305  0.9998276307366751  0.3598607679092325
  0.8875078179578679  0.2776187803013457  0.3610903401294365
  0.8318196892685847  0.1664437196260096  0.3607290296338945
  0.8880228814046518  0.4447990130065520  0.3647594433444681
  0.8321129183981029  0.3329789469934497  0.3647594433444681
  0.8880195929620953  0.6116403049695975  0.3652551683992229
  0.8337903898683408  0.5011838771501544  0.3691811129494340
  0.8872775854296862  0.7776118415042461  0.3622372480664708
  0.8321454936983201  0.6669829257091280  0.3651841559422877
  0.8871601001211431  0.9441325418849758  0.3600847812811239
  0.8316747941367595  0.8332168692100481  0.3615611425390881
  0.6998022767674428  0.3888892100000021  0.4933916450588782
  0.5308198503558401  0.3888892100000021  0.4994859206305478
  0.6219268752003089  0.3888892100000021  0.6226545375183932
  0.3725370996037753  0.3888892100000021  0.5527923193035562
 
  0.00000000E+00  0.00000000E+00  0.00000000E+00
  0.00000000E+00  0.00000000E+00  0.00000000E+00
  0.00000000E+00  0.00000000E+00  0.00000000E+00
  0.00000000E+00  0.00000000E+00  0.00000000E+00
  0.00000000E+00  0.00000000E+00  0.00000000E+00
  0.00000000E+00  0.00000000E+00  0.00000000E+00
  0.00000000E+00  0.00000000E+00  0.00000000E+00
  0.00000000E+00  0.00000000E+00  0.00000000E+00
  0.00000000E+00  0.00000000E+00  0.00000000E+00
  0.00000000E+00  0.00000000E+00  0.00000000E+00
  0.00000000E+00  0.00000000E+00  0.00000000E+00
  0.00000000E+00  0.00000000E+00  0.00000000E+00
  0.00000000E+00  0.00000000E+00  0.00000000E+00
  0.00000000E+00  0.00000000E+00  0.00000000E+00
  0.00000000E+00  0.00000000E+00  0.00000000E+00
  0.00000000E+00  0.00000000E+00  0.00000000E+00
  0.00000000E+00  0.00000000E+00  0.00000000E+00
  0.00000000E+00  0.00000000E+00  0.00000000E+00
  0.00000000E+00  0.00000000E+00  0.00000000E+00
  0.00000000E+00  0.00000000E+00  0.00000000E+00
  0.00000000E+00  0.00000000E+00  0.00000000E+00
  0.00000000E+00  0.00000000E+00  0.00000000E+00
  0.00000000E+00  0.00000000E+00  0.00000000E+00
  0.00000000E+00  0.00000000E+00  0.00000000E+00
  0.00000000E+00  0.00000000E+00  0.00000000E+00
  0.00000000E+00  0.00000000E+00  0.00000000E+00
  0.00000000E+00  0.00000000E+00  0.00000000E+00
  0.00000000E+00  0.00000000E+00  0.00000000E+00
  0.00000000E+00  0.00000000E+00  0.00000000E+00
  0.00000000E+00  0.00000000E+00  0.00000000E+00
  0.00000000E+00  0.00000000E+00  0.00000000E+00
  0.00000000E+00  0.00000000E+00  0.00000000E+00
  0.00000000E+00  0.00000000E+00  0.00000000E+00
  0.00000000E+00  0.00000000E+00  0.00000000E+00
  0.00000000E+00  0.00000000E+00  0.00000000E+00
  0.00000000E+00  0.00000000E+00  0.00000000E+00
  0.00000000E+00  0.00000000E+00  0.00000000E+00
  0.00000000E+00  0.00000000E+00  0.00000000E+00
  0.00000000E+00  0.00000000E+00  0.00000000E+00
  0.00000000E+00  0.00000000E+00  0.00000000E+00
  0.00000000E+00  0.00000000E+00  0.00000000E+00
  0.00000000E+00  0.00000000E+00  0.00000000E+00
  0.00000000E+00  0.00000000E+00  0.00000000E+00
  0.00000000E+00  0.00000000E+00  0.00000000E+00
  0.00000000E+00  0.00000000E+00  0.00000000E+00
  0.00000000E+00  0.00000000E+00  0.00000000E+00
  0.00000000E+00  0.00000000E+00  0.00000000E+00
  0.00000000E+00  0.00000000E+00  0.00000000E+00
  0.00000000E+00  0.00000000E+00  0.00000000E+00
  0.00000000E+00  0.00000000E+00  0.00000000E+00
  0.00000000E+00  0.00000000E+00  0.00000000E+00
  0.00000000E+00  0.00000000E+00  0.00000000E+00
  0.00000000E+00  0.00000000E+00  0.00000000E+00
  0.00000000E+00  0.00000000E+00  0.00000000E+00
  0.00000000E+00  0.00000000E+00  0.00000000E+00
  0.00000000E+00  0.00000000E+00  0.00000000E+00
  0.00000000E+00  0.00000000E+00  0.00000000E+00
  0.00000000E+00  0.00000000E+00  0.00000000E+00
  0.00000000E+00  0.00000000E+00  0.00000000E+00
  0.00000000E+00  0.00000000E+00  0.00000000E+00
  0.00000000E+00  0.00000000E+00  0.00000000E+00
  0.00000000E+00  0.00000000E+00  0.00000000E+00
  0.00000000E+00  0.00000000E+00  0.00000000E+00
  0.00000000E+00  0.00000000E+00  0.00000000E+00
  0.00000000E+00  0.00000000E+00  0.00000000E+00
  0.00000000E+00  0.00000000E+00  0.00000000E+00
  0.00000000E+00  0.00000000E+00  0.00000000E+00
  0.00000000E+00  0.00000000E+00  0.00000000E+00
  0.00000000E+00  0.00000000E+00  0.00000000E+00
  0.00000000E+00  0.00000000E+00  0.00000000E+00
  0.00000000E+00  0.00000000E+00  0.00000000E+00
  0.00000000E+00  0.00000000E+00  0.00000000E+00
  0.00000000E+00  0.00000000E+00  0.00000000E+00
  0.00000000E+00  0.00000000E+00  0.00000000E+00
  0.00000000E+00  0.00000000E+00  0.00000000E+00
  0.00000000E+00  0.00000000E+00  0.00000000E+00
