C4                                      
   1.00000000000000     
    14.8063199999999995    0.0000000000000000    0.0000000000000000
    -7.4031599999999997   12.8226492600000004    0.0000000000000000
     0.0000000000000000    0.0000000000000000   18.0000000000000000
   C    Cu   Au
    72     3     1
Direct
  0.0550586953512564  0.1111062394527238  0.3642441281464457
  0.9995420319714938  0.9999843455350685  0.3645641804226898
  0.0551845320567210  0.2778079744497006  0.3632918999384813
  0.9996044972260307  0.1666367027219948  0.3637435747998694
  0.0551846864889072  0.4444499134065296  0.3627785509343511
  0.9996755278823173  0.3334389289368715  0.3628347887572758
  0.0552511909683204  0.6112388116300096  0.3631766077133349
  0.9996769431249675  0.5000751922270581  0.3626857796234972
  0.0553261502625517  0.7779228216887972  0.3641625051264867
  0.9998136553651378  0.6667856167400146  0.3636351558457847
  0.0551356050710581  0.9444404231075580  0.3646676866407716
  0.9997343182528198  0.8334797769599760  0.3645409475695089
  0.2216875033537491  0.1110460142831471  0.3647119406334554
  0.1662429193901573  0.9999757794888922  0.3647194364702173
  0.2216217259386681  0.2776630034463210  0.3640290360191827
  0.1661787302052602  0.1666519806137643  0.3643904323420060
  0.2217352356647524  0.4445231449106402  0.3634577461160475
  0.1661572459838396  0.3333362884920632  0.3634757403289584
  0.2219029455025279  0.6112402099684786  0.3635349583302414
  0.1663149945186717  0.5000696856362055  0.3631926229796534
  0.2218767655479681  0.7778467934001227  0.3640807697749295
  0.1663707495628088  0.6668398861112124  0.3635392493103922
  0.2218553279151365  0.9445773991688569  0.3647594576867945
  0.1663432337341249  0.8334639989697195  0.3643146685784515
  0.3885122074448475  0.1111028139785333  0.3652522045196847
  0.3330512260952645  0.0002003170457670  0.3649476636945224
  0.3875008341498898  0.2772691713282143  0.3661521357341329
  0.3326164361679886  0.1664606726801026  0.3652002276847952
  0.3883590208801238  0.4446613208304271  0.3648165843028295
  0.3326386754571828  0.3331596199686899  0.3647395485869822
  0.3884214776029964  0.6112120470752558  0.3644894792917768
  0.3328638695856441  0.5001974186803082  0.3640817541038501
  0.3884965909868683  0.7779158411252283  0.3643352726467626
  0.3328800386806279  0.6667848124035487  0.3640973855347340
  0.3885986773870229  0.9445577488299861  0.3645943495301509
  0.3330152339894852  0.8334443175036981  0.3643325579863870
  0.5552585667434471  0.1110318529434409  0.3639294168426943
  0.4995938762793770  0.9999576918742576  0.3642917668342278
  0.5557213546318636  0.2772782912397034  0.3653455240068126
  0.4997626532435433  0.1664534933420398  0.3645732061488260
  0.5554879089700151  0.4450095204609141  0.3700490210675511
  0.4993327487394552  0.3326926863226944  0.3694696265478825
  0.5550180037712451  0.6113703321658477  0.3658859740904319
  0.4990645198708066  0.5005320195149494  0.3665698306722405
  0.5552075442805489  0.7779421293575695  0.3650383121740859
  0.4995364804706455  0.6668462347278492  0.3651065864114287
  0.5551766662253286  0.9444373601952449  0.3643856745505190
  0.4996318905526564  0.8334763074262526  0.3646180095623990
  0.7219462878703098  0.1111165207580100  0.3635983821792550
  0.6663192786156671  0.9999811108167904  0.3642159590548673
  0.7219782489777913  0.2776721729802389  0.3628337434042024
  0.6663791931700587  0.1666540383586721  0.3634189261852754
  0.7222492086809567  0.4446758525639254  0.3636380367802587
  0.6664664268032965  0.3331643417574384  0.3635045989504775
  0.7222796110468011  0.6113790236268102  0.3653680705392617
  0.6674021225696052  0.5005297418267887  0.3658360092575208
  0.7218163854681876  0.7777186110802106  0.3657295994343599
  0.6663517251564102  0.6667807814119229  0.3661759667081341
  0.7218301982401485  0.9444744384364938  0.3646562003378975
  0.6662358130184174  0.8333536406853383  0.3652637491268393
  0.8884736508650946  0.1110606094064437  0.3638003581078735
  0.8329822189862952  0.0000652129557750  0.3644704930986151
  0.8885407905642424  0.2778199658932721  0.3627422976117387
  0.8329384433160030  0.1666508427337305  0.3632874491452540
  0.8887235921213801  0.4445464627436593  0.3624999166646461
  0.8331119281967077  0.3333533626034040  0.3624791736109572
  0.8887063966429523  0.6112184199302959  0.3637161843065400
  0.8332699032759194  0.5002104932015072  0.3629834972316317
  0.8886320013393600  0.7779329694794512  0.3647622911163708
  0.8332367755583903  0.6668514232431875  0.3644908056278879
  0.8885280999986662  0.9444640060017591  0.3647527032853688
  0.8330292994167934  0.8333455068349949  0.3651800191651517
  0.5301233440069666  0.3891104025811245  0.4827953114130707
  0.6163390392489774  0.5530795425822177  0.5495929686517727
  0.5422523745878465  0.3964332207549290  0.6116801328790018
  0.4503740087106252  0.2193524423854001  0.5584990495111271
 
  0.00000000E+00  0.00000000E+00  0.00000000E+00
  0.00000000E+00  0.00000000E+00  0.00000000E+00
  0.00000000E+00  0.00000000E+00  0.00000000E+00
  0.00000000E+00  0.00000000E+00  0.00000000E+00
  0.00000000E+00  0.00000000E+00  0.00000000E+00
  0.00000000E+00  0.00000000E+00  0.00000000E+00
  0.00000000E+00  0.00000000E+00  0.00000000E+00
  0.00000000E+00  0.00000000E+00  0.00000000E+00
  0.00000000E+00  0.00000000E+00  0.00000000E+00
  0.00000000E+00  0.00000000E+00  0.00000000E+00
  0.00000000E+00  0.00000000E+00  0.00000000E+00
  0.00000000E+00  0.00000000E+00  0.00000000E+00
  0.00000000E+00  0.00000000E+00  0.00000000E+00
  0.00000000E+00  0.00000000E+00  0.00000000E+00
  0.00000000E+00  0.00000000E+00  0.00000000E+00
  0.00000000E+00  0.00000000E+00  0.00000000E+00
  0.00000000E+00  0.00000000E+00  0.00000000E+00
  0.00000000E+00  0.00000000E+00  0.00000000E+00
  0.00000000E+00  0.00000000E+00  0.00000000E+00
  0.00000000E+00  0.00000000E+00  0.00000000E+00
  0.00000000E+00  0.00000000E+00  0.00000000E+00
  0.00000000E+00  0.00000000E+00  0.00000000E+00
  0.00000000E+00  0.00000000E+00  0.00000000E+00
  0.00000000E+00  0.00000000E+00  0.00000000E+00
  0.00000000E+00  0.00000000E+00  0.00000000E+00
  0.00000000E+00  0.00000000E+00  0.00000000E+00
  0.00000000E+00  0.00000000E+00  0.00000000E+00
  0.00000000E+00  0.00000000E+00  0.00000000E+00
  0.00000000E+00  0.00000000E+00  0.00000000E+00
  0.00000000E+00  0.00000000E+00  0.00000000E+00
  0.00000000E+00  0.00000000E+00  0.00000000E+00
  0.00000000E+00  0.00000000E+00  0.00000000E+00
  0.00000000E+00  0.00000000E+00  0.00000000E+00
  0.00000000E+00  0.00000000E+00  0.00000000E+00
  0.00000000E+00  0.00000000E+00  0.00000000E+00
  0.00000000E+00  0.00000000E+00  0.00000000E+00
  0.00000000E+00  0.00000000E+00  0.00000000E+00
  0.00000000E+00  0.00000000E+00  0.00000000E+00
  0.00000000E+00  0.00000000E+00  0.00000000E+00
  0.00000000E+00  0.00000000E+00  0.00000000E+00
  0.00000000E+00  0.00000000E+00  0.00000000E+00
  0.00000000E+00  0.00000000E+00  0.00000000E+00
  0.00000000E+00  0.00000000E+00  0.00000000E+00
  0.00000000E+00  0.00000000E+00  0.00000000E+00
  0.00000000E+00  0.00000000E+00  0.00000000E+00
  0.00000000E+00  0.00000000E+00  0.00000000E+00
  0.00000000E+00  0.00000000E+00  0.00000000E+00
  0.00000000E+00  0.00000000E+00  0.00000000E+00
  0.00000000E+00  0.00000000E+00  0.00000000E+00
  0.00000000E+00  0.00000000E+00  0.00000000E+00
  0.00000000E+00  0.00000000E+00  0.00000000E+00
  0.00000000E+00  0.00000000E+00  0.00000000E+00
  0.00000000E+00  0.00000000E+00  0.00000000E+00
  0.00000000E+00  0.00000000E+00  0.00000000E+00
  0.00000000E+00  0.00000000E+00  0.00000000E+00
  0.00000000E+00  0.00000000E+00  0.00000000E+00
  0.00000000E+00  0.00000000E+00  0.00000000E+00
  0.00000000E+00  0.00000000E+00  0.00000000E+00
  0.00000000E+00  0.00000000E+00  0.00000000E+00
  0.00000000E+00  0.00000000E+00  0.00000000E+00
  0.00000000E+00  0.00000000E+00  0.00000000E+00
  0.00000000E+00  0.00000000E+00  0.00000000E+00
  0.00000000E+00  0.00000000E+00  0.00000000E+00
  0.00000000E+00  0.00000000E+00  0.00000000E+00
  0.00000000E+00  0.00000000E+00  0.00000000E+00
  0.00000000E+00  0.00000000E+00  0.00000000E+00
  0.00000000E+00  0.00000000E+00  0.00000000E+00
  0.00000000E+00  0.00000000E+00  0.00000000E+00
  0.00000000E+00  0.00000000E+00  0.00000000E+00
  0.00000000E+00  0.00000000E+00  0.00000000E+00
  0.00000000E+00  0.00000000E+00  0.00000000E+00
  0.00000000E+00  0.00000000E+00  0.00000000E+00
  0.00000000E+00  0.00000000E+00  0.00000000E+00
  0.00000000E+00  0.00000000E+00  0.00000000E+00
  0.00000000E+00  0.00000000E+00  0.00000000E+00
  0.00000000E+00  0.00000000E+00  0.00000000E+00
