C4                                      
   1.00000000000000     
    14.8063199999999995    0.0000000000000000    0.0000000000000000
    -7.4031599999999997   12.8226492600000004    0.0000000000000000
     0.0000000000000000    0.0000000000000000   18.0000000000000000
   C    Ni   Au
    72     1     1
Direct
  0.0559087937637841  0.1132689152881383  0.3622337729774188
  0.0010336927904575  0.0024600811595406  0.3614115845040686
  0.0568381899182100  0.2804849354157355  0.3619105915530128
  0.0010228409522099  0.1691114982106043  0.3622780124695453
  0.0568597661557106  0.4470449400476326  0.3616811920536023
  0.0012882322706815  0.3359010596013263  0.3620279877691246
  0.0567821029823534  0.6135982600137737  0.3614748353380577
  0.0012462129336015  0.5025342316067594  0.3617768773799526
  0.0567335733385903  0.7801339466771822  0.3610425006467253
  0.0011979636202071  0.6690625872404183  0.3613658500719765
  0.0565118729396161  0.9464657640546505  0.3608578462079066
  0.0010771071943694  0.8355701388301284  0.3609722721832966
  0.2229566577922384  0.1125801155844641  0.3611238477072831
  0.1671498564508269  0.0009663729016509  0.3607634588479485
  0.2238038322512779  0.2812343928741257  0.3603375403509759
  0.1675976959350791  0.1693758112460131  0.3621037291031541
  0.2236066095556382  0.4473679753193238  0.3604483779884262
  0.1679000788363041  0.3363610601666807  0.3609531269142394
  0.2235407645145315  0.6137838914655873  0.3609911334307228
  0.1679404522694057  0.5027042877754369  0.3610814551026564
  0.2234948551752538  0.7801651178975675  0.3611304646194782
  0.1679187428845950  0.6691959332192994  0.3612187167089616
  0.2232870911150400  0.9464657640546505  0.3608578462079066
  0.1678263616357469  0.8355701388301284  0.3609722721832966
  0.3906933215243527  0.1132689152881383  0.3622337729774188
  0.3347597183691065  0.0024600811595406  0.3614115845040686
  0.3907637606228604  0.2812343928741257  0.3603375403509759
  0.3351114553109298  0.1693758112460131  0.3621037291031541
  0.3904962393871472  0.4476592787743030  0.3586747608278387
  0.3352245347926868  0.3371157295853706  0.3584724744556240
  0.3902307991320200  0.6138641801439206  0.3601532932364790
  0.3347052240748951  0.5029892093324335  0.3595659661340633
  0.3901771809578776  0.7803827768030587  0.3611102490288687
  0.3346057063042167  0.6693514481971405  0.3607547434100695
  0.3902251705981286  0.9469504065202088  0.3614912439424742
  0.3345933363421310  0.8358015933351126  0.3612350679484848
  0.5569523417466087  0.1135994845834674  0.3622396044266978
  0.5013233594383166  0.0025418043627923  0.3619285267952819
  0.5569799354975231  0.2804849354157355  0.3619105915530128
  0.5014219872584036  0.1691114982106043  0.3622780124695453
  0.5570945657636770  0.4473679753193238  0.3604483779884262
  0.5017943113303716  0.3363610601666807  0.3609531269142394
  0.5569665810119062  0.6138641801439206  0.3601532932364790
  0.5016173152575263  0.5029892093324335  0.3595659661340633
  0.5568653425522569  0.7803974851045155  0.3609610357283941
  0.5013641713772685  0.6693950027545412  0.3602917090667432
  0.5568604791490870  0.9469554884687099  0.3617971435241785
  0.5013271903346990  0.8359486850626965  0.3612639436162723
  0.7235001898982105  0.1136671797964297  0.3623027495486468
  0.6679320500726220  0.0025307601452624  0.3620309284495633
  0.7235203074911283  0.2802903224438040  0.3623147821201798
  0.6680325938178129  0.1692356086426230  0.3623543148984325
  0.7235183738919275  0.4470449400476326  0.3616811920536023
  0.6679461573306469  0.3359010596013263  0.3620279877691246
  0.7235763169510534  0.6137838914655873  0.3609911334307228
  0.6680971655060191  0.5027042877754369  0.3610814551026564
  0.7235387958451795  0.7803827768030587  0.3611102490288687
  0.6680790718929259  0.6693514481971405  0.3607547434100695
  0.7234282093196285  0.9469554884687099  0.3617971435241785
  0.6679548247279925  0.8359486850626965  0.3612639436162723
  0.8899803428368571  0.1135994845834674  0.3622396044266978
  0.8345517749244777  0.0025418043627923  0.3619285267952819
  0.8901032149526884  0.2802903224438040  0.3623147821201798
  0.8345363548247988  0.1692356086426230  0.3623543148984325
  0.8901629182596196  0.4469926365192478  0.3620479572237230
  0.8345827806683772  0.3358322213367657  0.3622875756230002
  0.8901493570314258  0.6135982600137737  0.3614748353380577
  0.8346213486731457  0.5025342316067594  0.3617768773799526
  0.8900034627223192  0.7801651178975675  0.3611304646194782
  0.8346105203347207  0.6691959332192994  0.3612187167089616
  0.8900584259220778  0.9469504065202088  0.3614912439424742
  0.8345415869929909  0.8358015933351126  0.3612350679484848
  0.2585265737242679  0.1837196774485221  0.4611955468812354
  0.2731746959773815  0.2130160619547539  0.5900249634489541
 
  0.00000000E+00  0.00000000E+00  0.00000000E+00
  0.00000000E+00  0.00000000E+00  0.00000000E+00
  0.00000000E+00  0.00000000E+00  0.00000000E+00
  0.00000000E+00  0.00000000E+00  0.00000000E+00
  0.00000000E+00  0.00000000E+00  0.00000000E+00
  0.00000000E+00  0.00000000E+00  0.00000000E+00
  0.00000000E+00  0.00000000E+00  0.00000000E+00
  0.00000000E+00  0.00000000E+00  0.00000000E+00
  0.00000000E+00  0.00000000E+00  0.00000000E+00
  0.00000000E+00  0.00000000E+00  0.00000000E+00
  0.00000000E+00  0.00000000E+00  0.00000000E+00
  0.00000000E+00  0.00000000E+00  0.00000000E+00
  0.00000000E+00  0.00000000E+00  0.00000000E+00
  0.00000000E+00  0.00000000E+00  0.00000000E+00
  0.00000000E+00  0.00000000E+00  0.00000000E+00
  0.00000000E+00  0.00000000E+00  0.00000000E+00
  0.00000000E+00  0.00000000E+00  0.00000000E+00
  0.00000000E+00  0.00000000E+00  0.00000000E+00
  0.00000000E+00  0.00000000E+00  0.00000000E+00
  0.00000000E+00  0.00000000E+00  0.00000000E+00
  0.00000000E+00  0.00000000E+00  0.00000000E+00
  0.00000000E+00  0.00000000E+00  0.00000000E+00
  0.00000000E+00  0.00000000E+00  0.00000000E+00
  0.00000000E+00  0.00000000E+00  0.00000000E+00
  0.00000000E+00  0.00000000E+00  0.00000000E+00
  0.00000000E+00  0.00000000E+00  0.00000000E+00
  0.00000000E+00  0.00000000E+00  0.00000000E+00
  0.00000000E+00  0.00000000E+00  0.00000000E+00
  0.00000000E+00  0.00000000E+00  0.00000000E+00
  0.00000000E+00  0.00000000E+00  0.00000000E+00
  0.00000000E+00  0.00000000E+00  0.00000000E+00
  0.00000000E+00  0.00000000E+00  0.00000000E+00
  0.00000000E+00  0.00000000E+00  0.00000000E+00
  0.00000000E+00  0.00000000E+00  0.00000000E+00
  0.00000000E+00  0.00000000E+00  0.00000000E+00
  0.00000000E+00  0.00000000E+00  0.00000000E+00
  0.00000000E+00  0.00000000E+00  0.00000000E+00
  0.00000000E+00  0.00000000E+00  0.00000000E+00
  0.00000000E+00  0.00000000E+00  0.00000000E+00
  0.00000000E+00  0.00000000E+00  0.00000000E+00
  0.00000000E+00  0.00000000E+00  0.00000000E+00
  0.00000000E+00  0.00000000E+00  0.00000000E+00
  0.00000000E+00  0.00000000E+00  0.00000000E+00
  0.00000000E+00  0.00000000E+00  0.00000000E+00
  0.00000000E+00  0.00000000E+00  0.00000000E+00
  0.00000000E+00  0.00000000E+00  0.00000000E+00
  0.00000000E+00  0.00000000E+00  0.00000000E+00
  0.00000000E+00  0.00000000E+00  0.00000000E+00
  0.00000000E+00  0.00000000E+00  0.00000000E+00
  0.00000000E+00  0.00000000E+00  0.00000000E+00
  0.00000000E+00  0.00000000E+00  0.00000000E+00
  0.00000000E+00  0.00000000E+00  0.00000000E+00
  0.00000000E+00  0.00000000E+00  0.00000000E+00
  0.00000000E+00  0.00000000E+00  0.00000000E+00
  0.00000000E+00  0.00000000E+00  0.00000000E+00
  0.00000000E+00  0.00000000E+00  0.00000000E+00
  0.00000000E+00  0.00000000E+00  0.00000000E+00
  0.00000000E+00  0.00000000E+00  0.00000000E+00
  0.00000000E+00  0.00000000E+00  0.00000000E+00
  0.00000000E+00  0.00000000E+00  0.00000000E+00
  0.00000000E+00  0.00000000E+00  0.00000000E+00
  0.00000000E+00  0.00000000E+00  0.00000000E+00
  0.00000000E+00  0.00000000E+00  0.00000000E+00
  0.00000000E+00  0.00000000E+00  0.00000000E+00
  0.00000000E+00  0.00000000E+00  0.00000000E+00
  0.00000000E+00  0.00000000E+00  0.00000000E+00
  0.00000000E+00  0.00000000E+00  0.00000000E+00
  0.00000000E+00  0.00000000E+00  0.00000000E+00
  0.00000000E+00  0.00000000E+00  0.00000000E+00
  0.00000000E+00  0.00000000E+00  0.00000000E+00
  0.00000000E+00  0.00000000E+00  0.00000000E+00
  0.00000000E+00  0.00000000E+00  0.00000000E+00
  0.00000000E+00  0.00000000E+00  0.00000000E+00
  0.00000000E+00  0.00000000E+00  0.00000000E+00
