C4                                      
   1.00000000000000     
    14.8063199999999995    0.0000000000000000    0.0000000000000000
    -7.4031599999999997   12.8226492600000004    0.0000000000000000
     0.0000000000000000    0.0000000000000000   18.0000000000000000
   C    Pt
    72     4
Direct
  0.0528118899700303  0.1109696129901110  0.3618274897641811
  0.9972611126552664  0.9999200679696187  0.3622240431912047
  0.0528962356004072  0.2777608825288027  0.3622765523283178
  0.9972787648482182  0.1665406590521599  0.3623817292943414
  0.0530491537416609  0.4445063206990412  0.3634141667478232
  0.9974318730426290  0.3332716393009605  0.3634141667478232
  0.0530860052079021  0.6112900677537212  0.3639796373098534
  0.9975979128037196  0.5001834415841060  0.3645779277319434
  0.0530088108757383  0.7779311164072311  0.3630914253915662
  0.9976651639816794  0.6669066368280667  0.3640548766195195
  0.0527983044508886  0.9443360672537651  0.3622555977237525
  0.9973399940337728  0.8332837365022385  0.3629406306678504
  0.2193532265490106  0.1110321969179040  0.3610548597098813
  0.1638713557248863  0.9999333885646706  0.3617694930558173
  0.2195400242514154  0.2777502198898958  0.3602598001710078
  0.1639133623386684  0.1665496123765422  0.3609870069976537
  0.2195540648820469  0.4444300918997328  0.3610968272880797
  0.1640130229823171  0.3333478681002688  0.3610968272880797
  0.2196270557960602  0.6112373809478342  0.3623817292943414
  0.1640244430716038  0.5000171574711985  0.3622765523283178
  0.2196520643454249  0.7779089282218266  0.3626488812414621
  0.1641983837829599  0.6668037713774453  0.3630201316340376
  0.2194331092220310  0.9444007495581985  0.3620197245914056
  0.1640723259036889  0.8334275731135179  0.3625729458893829
  0.3858132789084081  0.1109351037670336  0.3618657862433921
  0.3304958081236649  0.9999104887441277  0.3620891570900042
  0.3859929568450795  0.2775892515813396  0.3599713011873860
  0.3304718785586047  0.1665969113158923  0.3608193621315436
  0.3861792832330835  0.4445580565562395  0.3595311695608387
  0.3305102766768400  0.3332199034437622  0.3595311695608387
  0.3862526999621352  0.6112284276234590  0.3609870069976537
  0.3306788943615047  0.5000278201101054  0.3602598001710078
  0.3862299946856567  0.7778579720303895  0.3622240431912047
  0.3307313669799186  0.6668084270098902  0.3618274897641811
  0.3861304008435056  0.9445222265842119  0.3626165848796603
  0.3307070337580598  0.8334726240715611  0.3624708999240767
  0.5527336315828677  0.1109841756647043  0.3644131027074593
  0.4973937931943766  0.0002215952275719  0.3632882764296639
  0.5511800692857207  0.2768847850322089  0.3656323653416180
  0.4967829009843285  0.1664240458897694  0.3636609856158941
  0.5528087668507169  0.4447998603271017  0.3619495870430782
  0.4968979465236103  0.3329780996728999  0.3619495870430782
  0.5527639172427214  0.6111811286841089  0.3608193621315436
  0.4972927852637383  0.5001887884186615  0.3599713011873860
  0.5528269171602105  0.7778446514353305  0.3617694930558173
  0.4972101196311129  0.6667458430820972  0.3610548597098813
  0.5529451975315354  0.9444942834977610  0.3629406306678504
  0.4973513171971078  0.8334419527462344  0.3622555977237525
  0.7196474771536003  0.1108714031719344  0.3640548766195195
  0.6639667844685064  0.9998469235927701  0.3630914253915662
  0.7200121706384266  0.2768340856590896  0.3682277652404835
  0.6640552660092851  0.1662803368092938  0.3654053868041274
  0.7197346829021356  0.4455150235500156  0.3739241402066398
  0.6631087093521231  0.3322629364499861  0.3739241402066398
  0.7192478050945610  0.6113539941102317  0.3636609856158941
  0.6631843742535040  0.5008932549677922  0.3656323653416180
  0.7194742793795399  0.7778675512558735  0.3620891570900042
  0.6637672551413729  0.6668429362329675  0.3618657862433921
  0.7195337027901800  0.9443504468864816  0.3625729458893829
  0.6639214296638229  0.8333772704418010  0.3620197245914056
  0.8862835724055245  0.1109742686225559  0.3630201316340376
  0.8306322161236039  0.9998691117781675  0.3626488812414621
  0.8863034312196163  0.2775945984158952  0.3645779277319434
  0.8306850274541802  0.1664879722462800  0.3639796373098534
  0.8866505083826510  0.4448758850642704  0.3666195690312435
  0.8306636733183836  0.3329020749357312  0.3666195690312435
  0.8866638791999932  0.6114977031907003  0.3654053868041274
  0.8320671749793291  0.5009439543409115  0.3682277652404835
  0.8860611479668066  0.7775564447724292  0.3632882764296639
  0.8306385459181769  0.6667938643352969  0.3644131027074593
  0.8861233496864926  0.9443053959284384  0.3624708999240767
  0.8304972542592850  0.8332557934157876  0.3626165848796603
  0.6965089383002550  0.3888892100000021  0.4891860118743452
  0.5431091253207114  0.3888892100000021  0.5520705820081062
  0.6795295188683639  0.3888892100000021  0.6264956131426729
  0.3871835443029568  0.3888892100000021  0.5409519094024873
 
  0.00000000E+00  0.00000000E+00  0.00000000E+00
  0.00000000E+00  0.00000000E+00  0.00000000E+00
  0.00000000E+00  0.00000000E+00  0.00000000E+00
  0.00000000E+00  0.00000000E+00  0.00000000E+00
  0.00000000E+00  0.00000000E+00  0.00000000E+00
  0.00000000E+00  0.00000000E+00  0.00000000E+00
  0.00000000E+00  0.00000000E+00  0.00000000E+00
  0.00000000E+00  0.00000000E+00  0.00000000E+00
  0.00000000E+00  0.00000000E+00  0.00000000E+00
  0.00000000E+00  0.00000000E+00  0.00000000E+00
  0.00000000E+00  0.00000000E+00  0.00000000E+00
  0.00000000E+00  0.00000000E+00  0.00000000E+00
  0.00000000E+00  0.00000000E+00  0.00000000E+00
  0.00000000E+00  0.00000000E+00  0.00000000E+00
  0.00000000E+00  0.00000000E+00  0.00000000E+00
  0.00000000E+00  0.00000000E+00  0.00000000E+00
  0.00000000E+00  0.00000000E+00  0.00000000E+00
  0.00000000E+00  0.00000000E+00  0.00000000E+00
  0.00000000E+00  0.00000000E+00  0.00000000E+00
  0.00000000E+00  0.00000000E+00  0.00000000E+00
  0.00000000E+00  0.00000000E+00  0.00000000E+00
  0.00000000E+00  0.00000000E+00  0.00000000E+00
  0.00000000E+00  0.00000000E+00  0.00000000E+00
  0.00000000E+00  0.00000000E+00  0.00000000E+00
  0.00000000E+00  0.00000000E+00  0.00000000E+00
  0.00000000E+00  0.00000000E+00  0.00000000E+00
  0.00000000E+00  0.00000000E+00  0.00000000E+00
  0.00000000E+00  0.00000000E+00  0.00000000E+00
  0.00000000E+00  0.00000000E+00  0.00000000E+00
  0.00000000E+00  0.00000000E+00  0.00000000E+00
  0.00000000E+00  0.00000000E+00  0.00000000E+00
  0.00000000E+00  0.00000000E+00  0.00000000E+00
  0.00000000E+00  0.00000000E+00  0.00000000E+00
  0.00000000E+00  0.00000000E+00  0.00000000E+00
  0.00000000E+00  0.00000000E+00  0.00000000E+00
  0.00000000E+00  0.00000000E+00  0.00000000E+00
  0.00000000E+00  0.00000000E+00  0.00000000E+00
  0.00000000E+00  0.00000000E+00  0.00000000E+00
  0.00000000E+00  0.00000000E+00  0.00000000E+00
  0.00000000E+00  0.00000000E+00  0.00000000E+00
  0.00000000E+00  0.00000000E+00  0.00000000E+00
  0.00000000E+00  0.00000000E+00  0.00000000E+00
  0.00000000E+00  0.00000000E+00  0.00000000E+00
  0.00000000E+00  0.00000000E+00  0.00000000E+00
  0.00000000E+00  0.00000000E+00  0.00000000E+00
  0.00000000E+00  0.00000000E+00  0.00000000E+00
  0.00000000E+00  0.00000000E+00  0.00000000E+00
  0.00000000E+00  0.00000000E+00  0.00000000E+00
  0.00000000E+00  0.00000000E+00  0.00000000E+00
  0.00000000E+00  0.00000000E+00  0.00000000E+00
  0.00000000E+00  0.00000000E+00  0.00000000E+00
  0.00000000E+00  0.00000000E+00  0.00000000E+00
  0.00000000E+00  0.00000000E+00  0.00000000E+00
  0.00000000E+00  0.00000000E+00  0.00000000E+00
  0.00000000E+00  0.00000000E+00  0.00000000E+00
  0.00000000E+00  0.00000000E+00  0.00000000E+00
  0.00000000E+00  0.00000000E+00  0.00000000E+00
  0.00000000E+00  0.00000000E+00  0.00000000E+00
  0.00000000E+00  0.00000000E+00  0.00000000E+00
  0.00000000E+00  0.00000000E+00  0.00000000E+00
  0.00000000E+00  0.00000000E+00  0.00000000E+00
  0.00000000E+00  0.00000000E+00  0.00000000E+00
  0.00000000E+00  0.00000000E+00  0.00000000E+00
  0.00000000E+00  0.00000000E+00  0.00000000E+00
  0.00000000E+00  0.00000000E+00  0.00000000E+00
  0.00000000E+00  0.00000000E+00  0.00000000E+00
  0.00000000E+00  0.00000000E+00  0.00000000E+00
  0.00000000E+00  0.00000000E+00  0.00000000E+00
  0.00000000E+00  0.00000000E+00  0.00000000E+00
  0.00000000E+00  0.00000000E+00  0.00000000E+00
  0.00000000E+00  0.00000000E+00  0.00000000E+00
  0.00000000E+00  0.00000000E+00  0.00000000E+00
  0.00000000E+00  0.00000000E+00  0.00000000E+00
  0.00000000E+00  0.00000000E+00  0.00000000E+00
  0.00000000E+00  0.00000000E+00  0.00000000E+00
  0.00000000E+00  0.00000000E+00  0.00000000E+00
