Comment                                 
   1.00000000000000     
    20.0000000000000000    0.0000000000000000    0.0000000000000000
     0.0000000000000000   20.0000000000000000    0.0000000000000000
     0.0000000000000000    0.0000000000000000   20.0000000000000000
   Pt   Au
     2     1
Direct
  0.4173336365092766  0.4831552224046902  0.4249999999999972
  0.5409294523390074  0.4897585848524812  0.4249999999999972
  0.4730994111517148  0.5994926927428281  0.4249999999999972
 
  0.00000000E+00  0.00000000E+00  0.00000000E+00
  0.00000000E+00  0.00000000E+00  0.00000000E+00
  0.00000000E+00  0.00000000E+00  0.00000000E+00
