Comment                                 
   1.00000000000000     
    20.0000000000000000    0.0000000000000000    0.0000000000000000
     0.0000000000000000   20.0000000000000000    0.0000000000000000
     0.0000000000000000    0.0000000000000000   20.0000000000000000
   Pd   Au
     1     2
Direct
  0.4148126723084786  0.4835263506125216  0.4249999999999972
  0.5446734106651050  0.4886157090115830  0.4249999999999972
  0.4718764170264151  0.6002644403758950  0.4249999999999972
 
  0.00000000E+00  0.00000000E+00  0.00000000E+00
  0.00000000E+00  0.00000000E+00  0.00000000E+00
  0.00000000E+00  0.00000000E+00  0.00000000E+00
