C4                                      
   1.00000000000000     
    14.8063199999999995    0.0000000000000000    0.0000000000000000
    -7.4031599999999997   12.8226492600000004    0.0000000000000000
     0.0000000000000000    0.0000000000000000   18.0000000000000000
   C    Ni   Au
    72     1     3
Direct
  0.0577698160717475  0.1107158839803972  0.3637156190797270
  0.0023563718558179  0.9997993424048275  0.3645267592477737
  0.0571825059886635  0.2772888964814584  0.3641751779824176
  0.0022289532438506  0.1664377353708915  0.3643762425225532
  0.0579464415288768  0.4445784461082596  0.3652219448668745
  0.0022570454206203  0.3331995038917412  0.3652219448668745
  0.0580442675603052  0.6111667891276653  0.3655929069453876
  0.0023911238642143  0.5000439045915499  0.3656730228431186
  0.0580363432912421  0.7777551321577292  0.3652729158955168
  0.0024665310877552  0.6667106500255713  0.3654924568429720
  0.0580227553640427  0.9443410475396021  0.3645283093544194
  0.0024805423664205  0.8332802527324006  0.3650415130272364
  0.2246618050450735  0.1107325208763470  0.3625461825786189
  0.1691612728205172  0.9998475183907516  0.3639071536945409
  0.2241269258410838  0.2766500003768684  0.3606451319495605
  0.1686335900627256  0.1655913085102512  0.3622100840633706
  0.2245204621797470  0.4449005691471868  0.3618869991342493
  0.1685089430325633  0.3328773808528140  0.3618869991342493
  0.2246801978729565  0.6113402946291089  0.3643762425225532
  0.1687826595072011  0.5004891435185428  0.3641751779824176
  0.2247518002427071  0.7778874582966679  0.3651928222663514
  0.1691266156707485  0.6667943135898824  0.3652217938338609
  0.2247778171660642  0.9443546011550197  0.3644474770817965
  0.1691751615109141  0.8333446169631387  0.3651140177390459
  0.3914738519337817  0.1109998009641160  0.3632111279524466
  0.3358547198772328  0.9999286596173604  0.3642542068329675
  0.3918814303058937  0.2772220082216563  0.3607736628699101
  0.3359457333884919  0.1664552124785388  0.3619963482894448
  0.3920955988591288  0.4449436742436248  0.3597878096571989
  0.3360409746155142  0.3328342757563760  0.3597878096571989
  0.3919312315524834  0.6121867214897492  0.3622100840633706
  0.3363660154642076  0.5011280396231328  0.3606451319495605
  0.3914459794510066  0.7779786875951729  0.3645267592477737
  0.3359430020913550  0.6670621060196069  0.3637156190797270
  0.3913993650904430  0.9444542445714390  0.3648339772575824
  0.3358217944510571  0.8334609613286759  0.3650086141156024
  0.5580755158499286  0.1110966730870473  0.3645735731129136
  0.5025318415983335  0.0000331515974423  0.3649118030521592
  0.5581081674523745  0.2777192783415003  0.3625934581154269
  0.5025224336728158  0.1666581782258660  0.3634329589038643
  0.5582975298004342  0.4446107189779127  0.3611229730999810
  0.5025758508225096  0.3331672310220881  0.3611229730999810
  0.5583794609099613  0.6113228175214616  0.3619963482894448
  0.5035485120842367  0.5005560317783448  0.3607736628699101
  0.5582027044297604  0.7779305116092488  0.3639071536945409
  0.5028183541687170  0.6670454691236571  0.3625461825786189
  0.5580892296340210  0.9444977272675956  0.3650415130272364
  0.5025707878244319  0.8334369324603941  0.3645283093544194
  0.7246447710621879  0.1110673399744329  0.3654924568429720
  0.6691702711335097  0.0000228978422712  0.3652729158955168
  0.7246893135791908  0.2778001418840859  0.3649302323323695
  0.6691338471538799  0.1666414210229874  0.3650759282778040
  0.7247483032960247  0.4444373263336630  0.3637243958532750
  0.6692000269623719  0.3333406236663379  0.3637243958532750
  0.7247531954469650  0.6111198517741343  0.3634329589038643
  0.6692779791108805  0.5000587616585008  0.3625934581154269
  0.7248150102598672  0.7778493703826399  0.3642542068329675
  0.6693631209696704  0.6667781890358881  0.3632111279524466
  0.7247194845477622  0.9444333630368575  0.3651140177390459
  0.6693122560110467  0.8334233788449765  0.3644474770817965
  0.8912211920808701  0.1109836764101217  0.3652217938338609
  0.8357534019460431  0.9998905717033324  0.3651928222663514
  0.8912361692726662  0.2777341354084513  0.3656730228431186
  0.8357665284326359  0.1666112408723350  0.3655929069453876
  0.8912645892579363  0.4444178899403042  0.3655587353727796
  0.8357357493176281  0.3333600600596967  0.3655587353727796
  0.8913813661309007  0.6111366089770200  0.3650759282778040
  0.8357782616950971  0.4999778981159153  0.3649302323323695
  0.8913876400008931  0.7777448784025580  0.3649118030521592
  0.8358679127628861  0.6666813169129568  0.3645735731129136
  0.8912497731223752  0.9443170186713203  0.3650086141156024
  0.8358341605190063  0.8333237354285572  0.3648339772575824
  0.2856414687639912  0.3888892200000029  0.4535404848450497
  0.2044923377336687  0.3888892200000029  0.5729188815187030
  0.3811991935768049  0.3888892200000029  0.5666946547482539
  0.5513142319292541  0.3888892200000029  0.5501928467976569
 
  0.00000000E+00  0.00000000E+00  0.00000000E+00
  0.00000000E+00  0.00000000E+00  0.00000000E+00
  0.00000000E+00  0.00000000E+00  0.00000000E+00
  0.00000000E+00  0.00000000E+00  0.00000000E+00
  0.00000000E+00  0.00000000E+00  0.00000000E+00
  0.00000000E+00  0.00000000E+00  0.00000000E+00
  0.00000000E+00  0.00000000E+00  0.00000000E+00
  0.00000000E+00  0.00000000E+00  0.00000000E+00
  0.00000000E+00  0.00000000E+00  0.00000000E+00
  0.00000000E+00  0.00000000E+00  0.00000000E+00
  0.00000000E+00  0.00000000E+00  0.00000000E+00
  0.00000000E+00  0.00000000E+00  0.00000000E+00
  0.00000000E+00  0.00000000E+00  0.00000000E+00
  0.00000000E+00  0.00000000E+00  0.00000000E+00
  0.00000000E+00  0.00000000E+00  0.00000000E+00
  0.00000000E+00  0.00000000E+00  0.00000000E+00
  0.00000000E+00  0.00000000E+00  0.00000000E+00
  0.00000000E+00  0.00000000E+00  0.00000000E+00
  0.00000000E+00  0.00000000E+00  0.00000000E+00
  0.00000000E+00  0.00000000E+00  0.00000000E+00
  0.00000000E+00  0.00000000E+00  0.00000000E+00
  0.00000000E+00  0.00000000E+00  0.00000000E+00
  0.00000000E+00  0.00000000E+00  0.00000000E+00
  0.00000000E+00  0.00000000E+00  0.00000000E+00
  0.00000000E+00  0.00000000E+00  0.00000000E+00
  0.00000000E+00  0.00000000E+00  0.00000000E+00
  0.00000000E+00  0.00000000E+00  0.00000000E+00
  0.00000000E+00  0.00000000E+00  0.00000000E+00
  0.00000000E+00  0.00000000E+00  0.00000000E+00
  0.00000000E+00  0.00000000E+00  0.00000000E+00
  0.00000000E+00  0.00000000E+00  0.00000000E+00
  0.00000000E+00  0.00000000E+00  0.00000000E+00
  0.00000000E+00  0.00000000E+00  0.00000000E+00
  0.00000000E+00  0.00000000E+00  0.00000000E+00
  0.00000000E+00  0.00000000E+00  0.00000000E+00
  0.00000000E+00  0.00000000E+00  0.00000000E+00
  0.00000000E+00  0.00000000E+00  0.00000000E+00
  0.00000000E+00  0.00000000E+00  0.00000000E+00
  0.00000000E+00  0.00000000E+00  0.00000000E+00
  0.00000000E+00  0.00000000E+00  0.00000000E+00
  0.00000000E+00  0.00000000E+00  0.00000000E+00
  0.00000000E+00  0.00000000E+00  0.00000000E+00
  0.00000000E+00  0.00000000E+00  0.00000000E+00
  0.00000000E+00  0.00000000E+00  0.00000000E+00
  0.00000000E+00  0.00000000E+00  0.00000000E+00
  0.00000000E+00  0.00000000E+00  0.00000000E+00
  0.00000000E+00  0.00000000E+00  0.00000000E+00
  0.00000000E+00  0.00000000E+00  0.00000000E+00
  0.00000000E+00  0.00000000E+00  0.00000000E+00
  0.00000000E+00  0.00000000E+00  0.00000000E+00
  0.00000000E+00  0.00000000E+00  0.00000000E+00
  0.00000000E+00  0.00000000E+00  0.00000000E+00
  0.00000000E+00  0.00000000E+00  0.00000000E+00
  0.00000000E+00  0.00000000E+00  0.00000000E+00
  0.00000000E+00  0.00000000E+00  0.00000000E+00
  0.00000000E+00  0.00000000E+00  0.00000000E+00
  0.00000000E+00  0.00000000E+00  0.00000000E+00
  0.00000000E+00  0.00000000E+00  0.00000000E+00
  0.00000000E+00  0.00000000E+00  0.00000000E+00
  0.00000000E+00  0.00000000E+00  0.00000000E+00
  0.00000000E+00  0.00000000E+00  0.00000000E+00
  0.00000000E+00  0.00000000E+00  0.00000000E+00
  0.00000000E+00  0.00000000E+00  0.00000000E+00
  0.00000000E+00  0.00000000E+00  0.00000000E+00
  0.00000000E+00  0.00000000E+00  0.00000000E+00
  0.00000000E+00  0.00000000E+00  0.00000000E+00
  0.00000000E+00  0.00000000E+00  0.00000000E+00
  0.00000000E+00  0.00000000E+00  0.00000000E+00
  0.00000000E+00  0.00000000E+00  0.00000000E+00
  0.00000000E+00  0.00000000E+00  0.00000000E+00
  0.00000000E+00  0.00000000E+00  0.00000000E+00
  0.00000000E+00  0.00000000E+00  0.00000000E+00
  0.00000000E+00  0.00000000E+00  0.00000000E+00
  0.00000000E+00  0.00000000E+00  0.00000000E+00
  0.00000000E+00  0.00000000E+00  0.00000000E+00
  0.00000000E+00  0.00000000E+00  0.00000000E+00
