POSCAR                                  
   1.00000000000000     
    20.0000000000000000    0.0000000000000000    0.0000000000000000
     0.0000000000000000   20.0000000000000000    0.0000000000000000
     0.0000000000000000    0.0000000000000000   20.0000000000000000
   Ni   Au
     1     3
Direct
  0.3954193586140207  0.3933811586140195  0.4232000000000014
  0.5115958317236036  0.3494966611813766  0.4232000000000014
  0.3515348611813778  0.5095576317236166  0.4232000000000014
  0.4823503484810132  0.4803121484810191  0.4232000000000014
 
  0.00000000E+00  0.00000000E+00  0.00000000E+00
  0.00000000E+00  0.00000000E+00  0.00000000E+00
  0.00000000E+00  0.00000000E+00  0.00000000E+00
  0.00000000E+00  0.00000000E+00  0.00000000E+00
