C4                                      
   1.00000000000000     
    14.8063199999999995    0.0000000000000000    0.0000000000000000
    -7.4031599999999997   12.8226492600000004    0.0000000000000000
     0.0000000000000000    0.0000000000000000   17.0000000000000000
   C    Pt
    72     3
Direct
  0.0548767364096321  0.1100004357266116  0.3830159905377712
  0.9994642104537448  0.9990119264414972  0.3831716001020880
  0.0550392304161704  0.2769065518052756  0.3849682047899279
  0.9994717601204925  0.1657271194499046  0.3836839758890420
  0.0548252173579229  0.4434206224334147  0.3868406259542994
  0.9994319396007540  0.3324140639178950  0.3858572078164926
  0.0549823891266357  0.6100765836304092  0.3863774797237056
  0.9994064524839885  0.4990445727755386  0.3865705777381621
  0.0549780046617201  0.7767560431797875  0.3849270594132648
  0.9994158273168736  0.6655985972963592  0.3859273279303252
  0.0549760947992226  0.9433946836893270  0.3833285012831027
  0.9994038780199190  0.8322987000243955  0.3843966889498063
  0.2215733940747526  0.1099289798096024  0.3823603488524157
  0.1660271631006580  0.9988448256700835  0.3828088000956171
  0.2213274540670724  0.2762039872871611  0.3836217330117933
  0.1659088858223328  0.1653521871062509  0.3826408633656087
  0.2207578918553352  0.4430895361668945  0.3891248271278016
  0.1659734547234351  0.3323859396169340  0.3858560409579894
  0.2217630787398193  0.6102911199543328  0.3873493977164699
  0.1658933081924303  0.4989398699535244  0.3880499851730050
  0.2217635975757659  0.7768720152395332  0.3849693747528349
  0.1662203194007645  0.6656730942502662  0.3862676608997688
  0.2216340828645187  0.9434101528939394  0.3832680483935391
  0.1661038142121853  0.8322995388447723  0.3843119686107102
  0.3883434151628293  0.1100022501876694  0.3829870649534612
  0.3327635138576852  0.9990146541558218  0.3830980178888623
  0.3880823305493166  0.2761966274054828  0.3835975228068946
  0.3326533708686696  0.1653454345915577  0.3826244845790683
  0.3876443589352405  0.4420357903789025  0.3903164725444483
  0.3317152164568569  0.3302145892881896  0.3844100670381181
  0.3889725324711648  0.6115299207223543  0.3877072890303381
  0.3325740689442327  0.4996602861967503  0.3921201174751943
  0.3886495609287692  0.7773559165754591  0.3846403118735111
  0.3330743517798069  0.6662627572769466  0.3865042873084050
  0.3884229875459937  0.9436370400356822  0.3834865786427528
  0.3328725881217593  0.8325670169034183  0.3842928391013487
  0.5550690230441404  0.1103349778729736  0.3836483231391625
  0.4994974373238037  0.9992659967438087  0.3833708315773237
  0.5550643119217540  0.2769104876520387  0.3849910178173204
  0.4994742129647065  0.1657276348954966  0.3836941241094323
  0.5555354144914233  0.4430910650945776  0.3891007625476846
  0.4996083603632115  0.3323718734641901  0.3858329596640004
  0.5557544466615028  0.6114866645816690  0.3877147683942681
  0.5003221913750195  0.4996478588861208  0.3919866305107789
  0.5553771033602715  0.7775511140045239  0.3833291088805879
  0.5001606682086148  0.6671083395641659  0.3848927035888039
  0.5551562068497660  0.9438589011693068  0.3832361443497661
  0.4996375568380955  0.8329472135390716  0.3835268320871066
  0.7217851975046941  0.1103635382208523  0.3837207284447999
  0.6662789928912574  0.9993581243755330  0.3831816771138250
  0.7217212587263759  0.2768569549632076  0.3851753580450179
  0.6661995844715136  0.1658590623034186  0.3841366440224547
  0.7218142479992622  0.4434334616668423  0.3869315849475328
  0.6661895033786394  0.3324227956782124  0.3859212951574094
  0.7217473884675840  0.6102915171102410  0.3874457423037470
  0.6662588682516670  0.4989446827763970  0.3881203776370086
  0.7219224920165317  0.7773524108957872  0.3846877200060064
  0.6664055661082386  0.6662536755252049  0.3865541638771361
  0.7219159521879064  0.9438763107746837  0.3832459625952751
  0.6665263003601254  0.8329577365119647  0.3835379841364102
  0.8884791872240498  0.1103391642673657  0.3836380157685397
  0.8329824735369726  0.9992742258217575  0.3833874796432255
  0.8883370321076498  0.2768503648051279  0.3851403118242018
  0.8328710774742305  0.1658619325604818  0.3841200091566392
  0.8883556480144250  0.4434890219545977  0.3862701606118435
  0.8328029857423402  0.3323929508415588  0.3855871728475080
  0.8883292445302473  0.6100937611426502  0.3864775579898350
  0.8328755203501572  0.4990584675965266  0.3866411293870655
  0.8883184663489629  0.7768672165517998  0.3851115540582626
  0.8326818697946763  0.6656763470644620  0.3864199534625072
  0.8884256240444302  0.9436391612159483  0.3835590896030610
  0.8329107542609577  0.8325677783659913  0.3843911683294010
  0.3100286156127723  0.4564332719932480  0.6357791839399525
  0.4756947373927716  0.4582802349657200  0.6378702997881120
  0.4078381667807278  0.4836965117006145  0.5104955763091823
 
  0.00000000E+00  0.00000000E+00  0.00000000E+00
  0.00000000E+00  0.00000000E+00  0.00000000E+00
  0.00000000E+00  0.00000000E+00  0.00000000E+00
  0.00000000E+00  0.00000000E+00  0.00000000E+00
  0.00000000E+00  0.00000000E+00  0.00000000E+00
  0.00000000E+00  0.00000000E+00  0.00000000E+00
  0.00000000E+00  0.00000000E+00  0.00000000E+00
  0.00000000E+00  0.00000000E+00  0.00000000E+00
  0.00000000E+00  0.00000000E+00  0.00000000E+00
  0.00000000E+00  0.00000000E+00  0.00000000E+00
  0.00000000E+00  0.00000000E+00  0.00000000E+00
  0.00000000E+00  0.00000000E+00  0.00000000E+00
  0.00000000E+00  0.00000000E+00  0.00000000E+00
  0.00000000E+00  0.00000000E+00  0.00000000E+00
  0.00000000E+00  0.00000000E+00  0.00000000E+00
  0.00000000E+00  0.00000000E+00  0.00000000E+00
  0.00000000E+00  0.00000000E+00  0.00000000E+00
  0.00000000E+00  0.00000000E+00  0.00000000E+00
  0.00000000E+00  0.00000000E+00  0.00000000E+00
  0.00000000E+00  0.00000000E+00  0.00000000E+00
  0.00000000E+00  0.00000000E+00  0.00000000E+00
  0.00000000E+00  0.00000000E+00  0.00000000E+00
  0.00000000E+00  0.00000000E+00  0.00000000E+00
  0.00000000E+00  0.00000000E+00  0.00000000E+00
  0.00000000E+00  0.00000000E+00  0.00000000E+00
  0.00000000E+00  0.00000000E+00  0.00000000E+00
  0.00000000E+00  0.00000000E+00  0.00000000E+00
  0.00000000E+00  0.00000000E+00  0.00000000E+00
  0.00000000E+00  0.00000000E+00  0.00000000E+00
  0.00000000E+00  0.00000000E+00  0.00000000E+00
  0.00000000E+00  0.00000000E+00  0.00000000E+00
  0.00000000E+00  0.00000000E+00  0.00000000E+00
  0.00000000E+00  0.00000000E+00  0.00000000E+00
  0.00000000E+00  0.00000000E+00  0.00000000E+00
  0.00000000E+00  0.00000000E+00  0.00000000E+00
  0.00000000E+00  0.00000000E+00  0.00000000E+00
  0.00000000E+00  0.00000000E+00  0.00000000E+00
  0.00000000E+00  0.00000000E+00  0.00000000E+00
  0.00000000E+00  0.00000000E+00  0.00000000E+00
  0.00000000E+00  0.00000000E+00  0.00000000E+00
  0.00000000E+00  0.00000000E+00  0.00000000E+00
  0.00000000E+00  0.00000000E+00  0.00000000E+00
  0.00000000E+00  0.00000000E+00  0.00000000E+00
  0.00000000E+00  0.00000000E+00  0.00000000E+00
  0.00000000E+00  0.00000000E+00  0.00000000E+00
  0.00000000E+00  0.00000000E+00  0.00000000E+00
  0.00000000E+00  0.00000000E+00  0.00000000E+00
  0.00000000E+00  0.00000000E+00  0.00000000E+00
  0.00000000E+00  0.00000000E+00  0.00000000E+00
  0.00000000E+00  0.00000000E+00  0.00000000E+00
  0.00000000E+00  0.00000000E+00  0.00000000E+00
  0.00000000E+00  0.00000000E+00  0.00000000E+00
  0.00000000E+00  0.00000000E+00  0.00000000E+00
  0.00000000E+00  0.00000000E+00  0.00000000E+00
  0.00000000E+00  0.00000000E+00  0.00000000E+00
  0.00000000E+00  0.00000000E+00  0.00000000E+00
  0.00000000E+00  0.00000000E+00  0.00000000E+00
  0.00000000E+00  0.00000000E+00  0.00000000E+00
  0.00000000E+00  0.00000000E+00  0.00000000E+00
  0.00000000E+00  0.00000000E+00  0.00000000E+00
  0.00000000E+00  0.00000000E+00  0.00000000E+00
  0.00000000E+00  0.00000000E+00  0.00000000E+00
  0.00000000E+00  0.00000000E+00  0.00000000E+00
  0.00000000E+00  0.00000000E+00  0.00000000E+00
  0.00000000E+00  0.00000000E+00  0.00000000E+00
  0.00000000E+00  0.00000000E+00  0.00000000E+00
  0.00000000E+00  0.00000000E+00  0.00000000E+00
  0.00000000E+00  0.00000000E+00  0.00000000E+00
  0.00000000E+00  0.00000000E+00  0.00000000E+00
  0.00000000E+00  0.00000000E+00  0.00000000E+00
  0.00000000E+00  0.00000000E+00  0.00000000E+00
  0.00000000E+00  0.00000000E+00  0.00000000E+00
  0.00000000E+00  0.00000000E+00  0.00000000E+00
  0.00000000E+00  0.00000000E+00  0.00000000E+00
  0.00000000E+00  0.00000000E+00  0.00000000E+00
