POSCAR                                  
   1.00000000000000     
    20.0000000000000000    0.0000000000000000    0.0000000000000000
     0.0000000000000000   20.0000000000000000    0.0000000000000000
     0.0000000000000000    0.0000000000000000   20.0000000000000000
   Ag   Au
     2     2
Direct
  0.3877343467102364  0.3856961467102352  0.4232000000000014
  0.4827158532897640  0.4806776532897699  0.4232000000000014
  0.5172774122721877  0.3511345877278114  0.4232000000000014
  0.3531727877278126  0.5152392122721936  0.4232000000000014
