C4                                      
   1.00000000000000     
    14.8063199999999995    0.0000000000000000    0.0000000000000000
    -7.4031599999999997   12.8226492600000004    0.0000000000000000
     0.0000000000000000    0.0000000000000000   17.0000000000000000
   C    Pd
    72     3
Direct
  0.0555999378365613  0.1108039398002916  0.3801879359555898
  0.0002947426507731  0.9998387534093567  0.3792649075522831
  0.0558114277207267  0.2776684683707771  0.3794404794825255
  0.0001996977200420  0.1664752545430161  0.3790201799804436
  0.0557733560340807  0.4442980269159662  0.3773238723283043
  0.0002501043994769  0.3332688527872563  0.3773029758193616
  0.0558921314811798  0.6109904574502210  0.3770515950653177
  0.0003724743197893  0.4999394157600818  0.3765698961863109
  0.0558741816481572  0.7776353087291952  0.3780445085168438
  0.0003856181743203  0.6665705405566698  0.3777004391633056
  0.0557976688438870  0.9442652757059449  0.3792553143308055
  0.0003184484779979  0.8332094081152235  0.3788715712496895
  0.2221850515445212  0.1105937104021564  0.3832424836291040
  0.1668909226006150  0.9997372831599165  0.3802153119060065
  0.2213579103302123  0.2768568326782486  0.3884473728427338
  0.1665228452150629  0.1660542571322239  0.3836269712623448
  0.2220859833709596  0.4443946259636107  0.3847775743103554
  0.1664429056860612  0.3330897253517762  0.3839483166263591
  0.2224454380222980  0.6110309674854264  0.3800395016245162
  0.1668640890838304  0.4999244998741119  0.3799145155706825
  0.2225022871922064  0.7776226864398268  0.3782048947087091
  0.1669635030696313  0.6665706636934701  0.3779717210050180
  0.2224701143347261  0.9442031944522498  0.3793641654690845
  0.1669722781079699  0.8331958537576227  0.3780868406441797
  0.3891636106222123  0.1105894525053586  0.3830580770789140
  0.3335904578781452  0.9997204950760477  0.3801641672785578
  0.3884124423712336  0.2759981603832458  0.3935705275026109
  0.3333684165914477  0.1659714338026888  0.3859861560004205
  0.3870634427846795  0.4439376708246812  0.4067265714355415
  0.3322163710629482  0.3313896464468158  0.3983516685902941
  0.3887622005498130  0.6112303261140539  0.3890225609531228
  0.3325508369696664  0.5003906863423353  0.3931640557016678
  0.3892088104283076  0.7777788183043057  0.3808485775971704
  0.3335350154304280  0.6666593242885455  0.3826799991951546
  0.3892076563153566  0.9442416631460446  0.3792597031078557
  0.3336291927870647  0.8331883515205689  0.3790477296555892
  0.5559458520104528  0.1107816211393597  0.3798148402670662
  0.5002791168786160  0.9998161640032777  0.3791420940337105
  0.5563007776424058  0.2768542100469418  0.3878226768322719
  0.5002870913808550  0.1660408131840114  0.3831857725776899
  0.5577488478073462  0.4439261867008639  0.4063842402563438
  0.5000214804453336  0.3313920973661695  0.3979496805227853
  0.5572843170731545  0.6137219195171326  0.3992421635474415
  0.5013489742174713  0.5017923447307169  0.4116048229254616
  0.5559975946441966  0.7782673571716856  0.3847663993193748
  0.5002406531177854  0.6677841943235450  0.3911780801248526
  0.5559152202202355  0.9444269850122922  0.3794127054416236
  0.5003049416153189  0.8335219075142604  0.3813965406386259
  0.7225976818046647  0.1110289814864984  0.3777150956028734
  0.6670257345485027  0.9999773647728816  0.3788965579261756
  0.7226429109615964  0.2776524415436583  0.3787719880663616
  0.6670142668059853  0.1664560263316446  0.3785762030534983
  0.7231130089421001  0.4443910241254088  0.3840136510701697
  0.6674457985007862  0.3330808354388495  0.3831569864176814
  0.7232785289937382  0.6112362301832519  0.3885803748788987
  0.6686719722299301  0.5003918116587229  0.3926184092475040
  0.7230423864044297  0.7782754932601321  0.3846052082179696
  0.6683480707578724  0.6677860997233296  0.3909505948102634
  0.7226137213564385  0.9444840234579033  0.3799609289583188
  0.6671756386347383  0.8335911718068658  0.3831889331134093
  0.8891801742617744  0.1110440199461991  0.3779083059876953
  0.8336903419352737  0.9999865927919203  0.3789578277536307
  0.8892252403191208  0.2776586459094972  0.3765069649969988
  0.8336589497736639  0.1665755572818313  0.3770942124376475
  0.8893303665062078  0.4443038915192901  0.3768800281035780
  0.8338106643745817  0.3332717970900489  0.3768727417425026
  0.8893677631031949  0.6110382891701107  0.3795042915395470
  0.8338562989799385  0.4999306931679826  0.3792436715484797
  0.8893366484016170  0.7777899561400474  0.3805628467142697
  0.8339050308499338  0.6666673062186135  0.3821962570336979
  0.8892675118477058  0.9444417518738817  0.3794183667078244
  0.8339796012595286  0.8335303994397236  0.3812119228477187
  0.5356192805358475  0.5693495348200486  0.5263700064292749
  0.5398020095456673  0.3887521874395716  0.5258840659324022
  0.3510006596556110  0.3885143314024901  0.5262757530475781
 
  0.00000000E+00  0.00000000E+00  0.00000000E+00
  0.00000000E+00  0.00000000E+00  0.00000000E+00
  0.00000000E+00  0.00000000E+00  0.00000000E+00
  0.00000000E+00  0.00000000E+00  0.00000000E+00
  0.00000000E+00  0.00000000E+00  0.00000000E+00
  0.00000000E+00  0.00000000E+00  0.00000000E+00
  0.00000000E+00  0.00000000E+00  0.00000000E+00
  0.00000000E+00  0.00000000E+00  0.00000000E+00
  0.00000000E+00  0.00000000E+00  0.00000000E+00
  0.00000000E+00  0.00000000E+00  0.00000000E+00
  0.00000000E+00  0.00000000E+00  0.00000000E+00
  0.00000000E+00  0.00000000E+00  0.00000000E+00
  0.00000000E+00  0.00000000E+00  0.00000000E+00
  0.00000000E+00  0.00000000E+00  0.00000000E+00
  0.00000000E+00  0.00000000E+00  0.00000000E+00
  0.00000000E+00  0.00000000E+00  0.00000000E+00
  0.00000000E+00  0.00000000E+00  0.00000000E+00
  0.00000000E+00  0.00000000E+00  0.00000000E+00
  0.00000000E+00  0.00000000E+00  0.00000000E+00
  0.00000000E+00  0.00000000E+00  0.00000000E+00
  0.00000000E+00  0.00000000E+00  0.00000000E+00
  0.00000000E+00  0.00000000E+00  0.00000000E+00
  0.00000000E+00  0.00000000E+00  0.00000000E+00
  0.00000000E+00  0.00000000E+00  0.00000000E+00
  0.00000000E+00  0.00000000E+00  0.00000000E+00
  0.00000000E+00  0.00000000E+00  0.00000000E+00
  0.00000000E+00  0.00000000E+00  0.00000000E+00
  0.00000000E+00  0.00000000E+00  0.00000000E+00
  0.00000000E+00  0.00000000E+00  0.00000000E+00
  0.00000000E+00  0.00000000E+00  0.00000000E+00
  0.00000000E+00  0.00000000E+00  0.00000000E+00
  0.00000000E+00  0.00000000E+00  0.00000000E+00
  0.00000000E+00  0.00000000E+00  0.00000000E+00
  0.00000000E+00  0.00000000E+00  0.00000000E+00
  0.00000000E+00  0.00000000E+00  0.00000000E+00
  0.00000000E+00  0.00000000E+00  0.00000000E+00
  0.00000000E+00  0.00000000E+00  0.00000000E+00
  0.00000000E+00  0.00000000E+00  0.00000000E+00
  0.00000000E+00  0.00000000E+00  0.00000000E+00
  0.00000000E+00  0.00000000E+00  0.00000000E+00
  0.00000000E+00  0.00000000E+00  0.00000000E+00
  0.00000000E+00  0.00000000E+00  0.00000000E+00
  0.00000000E+00  0.00000000E+00  0.00000000E+00
  0.00000000E+00  0.00000000E+00  0.00000000E+00
  0.00000000E+00  0.00000000E+00  0.00000000E+00
  0.00000000E+00  0.00000000E+00  0.00000000E+00
  0.00000000E+00  0.00000000E+00  0.00000000E+00
  0.00000000E+00  0.00000000E+00  0.00000000E+00
  0.00000000E+00  0.00000000E+00  0.00000000E+00
  0.00000000E+00  0.00000000E+00  0.00000000E+00
  0.00000000E+00  0.00000000E+00  0.00000000E+00
  0.00000000E+00  0.00000000E+00  0.00000000E+00
  0.00000000E+00  0.00000000E+00  0.00000000E+00
  0.00000000E+00  0.00000000E+00  0.00000000E+00
  0.00000000E+00  0.00000000E+00  0.00000000E+00
  0.00000000E+00  0.00000000E+00  0.00000000E+00
  0.00000000E+00  0.00000000E+00  0.00000000E+00
  0.00000000E+00  0.00000000E+00  0.00000000E+00
  0.00000000E+00  0.00000000E+00  0.00000000E+00
  0.00000000E+00  0.00000000E+00  0.00000000E+00
  0.00000000E+00  0.00000000E+00  0.00000000E+00
  0.00000000E+00  0.00000000E+00  0.00000000E+00
  0.00000000E+00  0.00000000E+00  0.00000000E+00
  0.00000000E+00  0.00000000E+00  0.00000000E+00
  0.00000000E+00  0.00000000E+00  0.00000000E+00
  0.00000000E+00  0.00000000E+00  0.00000000E+00
  0.00000000E+00  0.00000000E+00  0.00000000E+00
  0.00000000E+00  0.00000000E+00  0.00000000E+00
  0.00000000E+00  0.00000000E+00  0.00000000E+00
  0.00000000E+00  0.00000000E+00  0.00000000E+00
  0.00000000E+00  0.00000000E+00  0.00000000E+00
  0.00000000E+00  0.00000000E+00  0.00000000E+00
  0.00000000E+00  0.00000000E+00  0.00000000E+00
  0.00000000E+00  0.00000000E+00  0.00000000E+00
  0.00000000E+00  0.00000000E+00  0.00000000E+00
