C4                                      
   1.00000000000000     
    14.8063199999999995    0.0000000000000000    0.0000000000000000
    -7.4031599999999997   12.8226492600000004    0.0000000000000000
     0.0000000000000000    0.0000000000000000   18.0000000000000000
   C    Cu
    72     4
Direct
  0.0551685643478095  0.1106209396671503  0.3634113855952137
  0.9996365140220576  0.9995615996193195  0.3632213975060026
  0.0553036693843652  0.2774153973351758  0.3641127407366156
  0.9996718736342913  0.1662384502523437  0.3637155459230854
  0.0551731654218628  0.4440617278722527  0.3637759221803876
  0.9996744981638486  0.3329780065027350  0.3638460170332465
  0.0552157549469001  0.6107337309584295  0.3632024959777098
  0.9996437941657632  0.4996328271656694  0.3633632940312310
  0.0552276765361910  0.7773869230012238  0.3629922944092030
  0.9996186542444718  0.6662651503277814  0.3630061542149647
  0.0552082350506282  0.9440046587671915  0.3630305492588377
  0.9996209921533961  0.8329143463226245  0.3630778456690180
  0.2218602249961350  0.1105874847591934  0.3626743269533534
  0.1662652574354908  0.9995002156145105  0.3626941512413850
  0.2216463365124923  0.2770272456614578  0.3642092943527047
  0.1661732372072606  0.1660083240653094  0.3633121561566099
  0.2216671802194696  0.4441200536951797  0.3648362273907750
  0.1662492692509758  0.3328932456251152  0.3646166721346162
  0.2218498999007039  0.6107946553105421  0.3637017024321381
  0.1661749779856336  0.4996954353198504  0.3640816267768940
  0.2218864229311066  0.7774000065484969  0.3628686605859244
  0.1662676176969242  0.6663167848354803  0.3632619121709268
  0.2218967605133386  0.9440241309538280  0.3624641441012244
  0.1662703301103505  0.8329205257379968  0.3627721520639398
  0.3886142893331126  0.1105911393755434  0.3616186133779351
  0.3329895082858201  0.9995588905388857  0.3620251014990075
  0.3885212759083529  0.2769848191352224  0.3622954658324247
  0.3329282773542914  0.1660296632571274  0.3619710233481968
  0.3879730868708435  0.4437383648167028  0.3677767810446753
  0.3324578649315271  0.3319225972892283  0.3646416744623835
  0.3884723444052298  0.6109813677325420  0.3643858857461169
  0.3324683188692958  0.5000388647343001  0.3657672439030648
  0.3885917847899663  0.7775158250470682  0.3630310865474939
  0.3329200822882399  0.6664222556134050  0.3635929344500894
  0.3886178836038638  0.9440686980413915  0.3622159540720276
  0.3329717848987102  0.8329632390484392  0.3626719104848988
  0.5552959302380458  0.1106878483662541  0.3619301760166280
  0.4996649297450304  0.9996137209722704  0.3621768748662717
  0.5553422220696191  0.2772150137745300  0.3613563041775905
  0.4996809132120958  0.1661394777801419  0.3614927528671430
  0.5559022189139142  0.4435824440926979  0.3628859358271583
  0.4998492436704254  0.3326396396022488  0.3614641804526570
  0.5558909705802080  0.6117348398532627  0.3651639631690244
  0.5004136575091849  0.4998857670581955  0.3669074894829834
  0.5553565199976376  0.7776411957831897  0.3635708921375951
  0.4997963829192713  0.6666428446768720  0.3643524366375885
  0.5552871698061708  0.9441208995116313  0.3626401816734486
  0.4996731517953847  0.8330793692020748  0.3630212844954386
  0.7219911062126059  0.1107658965363072  0.3628066004589883
  0.6663672749832088  0.9996601197046502  0.3628808632662128
  0.7219863059784331  0.2773251238526768  0.3624429805265805
  0.6663747352899065  0.1662628383992484  0.3623203555175536
  0.7221286376623226  0.4440251703090183  0.3623798479853875
  0.6663938636395415  0.3328268632269840  0.3621723328882283
  0.7220412571209565  0.6107712215236631  0.3630120658492970
  0.6666497849555455  0.4996192478260539  0.3622478091786121
  0.7221175990844557  0.7776369812974906  0.3635536625920608
  0.6666855606904178  0.6666129470521653  0.3638308151486385
  0.7219940937440867  0.9441767522332967  0.3632621608245117
  0.6664289752862800  0.8330871478490209  0.3635203321838745
  0.8886375512772986  0.1107662454163290  0.3634691557540606
  0.8330580850259466  0.9996738940243830  0.3633266346936566
  0.8886348101747785  0.2774075842757568  0.3634020009018784
  0.8330277230158032  0.1662959841380740  0.3632689751637486
  0.8886521420818809  0.4440465608894755  0.3629978392486706
  0.8330512576979672  0.3329289605863792  0.3629864123544593
  0.8886085510872235  0.6107226583679122  0.3628370805026364
  0.8331620586462947  0.4996504543501317  0.3626075829410524
  0.8885889541352157  0.7774014485766614  0.3632116061525181
  0.8329674206646374  0.6662620472360246  0.3630375752860289
  0.8886345889170997  0.9441137336894414  0.3632916965702577
  0.8331141145490903  0.8330383971109541  0.3632929104411815
  0.4493191982507270  0.4664817508464054  0.4786637099584112
  0.3857237195412679  0.4469489518598380  0.5974413647391756
  0.5436058010284341  0.4470203259516268  0.5757304630956952
  0.6888812604308754  0.4453581616480022  0.5393039503087209
 
  0.00000000E+00  0.00000000E+00  0.00000000E+00
  0.00000000E+00  0.00000000E+00  0.00000000E+00
  0.00000000E+00  0.00000000E+00  0.00000000E+00
  0.00000000E+00  0.00000000E+00  0.00000000E+00
  0.00000000E+00  0.00000000E+00  0.00000000E+00
  0.00000000E+00  0.00000000E+00  0.00000000E+00
  0.00000000E+00  0.00000000E+00  0.00000000E+00
  0.00000000E+00  0.00000000E+00  0.00000000E+00
  0.00000000E+00  0.00000000E+00  0.00000000E+00
  0.00000000E+00  0.00000000E+00  0.00000000E+00
  0.00000000E+00  0.00000000E+00  0.00000000E+00
  0.00000000E+00  0.00000000E+00  0.00000000E+00
  0.00000000E+00  0.00000000E+00  0.00000000E+00
  0.00000000E+00  0.00000000E+00  0.00000000E+00
  0.00000000E+00  0.00000000E+00  0.00000000E+00
  0.00000000E+00  0.00000000E+00  0.00000000E+00
  0.00000000E+00  0.00000000E+00  0.00000000E+00
  0.00000000E+00  0.00000000E+00  0.00000000E+00
  0.00000000E+00  0.00000000E+00  0.00000000E+00
  0.00000000E+00  0.00000000E+00  0.00000000E+00
  0.00000000E+00  0.00000000E+00  0.00000000E+00
  0.00000000E+00  0.00000000E+00  0.00000000E+00
  0.00000000E+00  0.00000000E+00  0.00000000E+00
  0.00000000E+00  0.00000000E+00  0.00000000E+00
  0.00000000E+00  0.00000000E+00  0.00000000E+00
  0.00000000E+00  0.00000000E+00  0.00000000E+00
  0.00000000E+00  0.00000000E+00  0.00000000E+00
  0.00000000E+00  0.00000000E+00  0.00000000E+00
  0.00000000E+00  0.00000000E+00  0.00000000E+00
  0.00000000E+00  0.00000000E+00  0.00000000E+00
  0.00000000E+00  0.00000000E+00  0.00000000E+00
  0.00000000E+00  0.00000000E+00  0.00000000E+00
  0.00000000E+00  0.00000000E+00  0.00000000E+00
  0.00000000E+00  0.00000000E+00  0.00000000E+00
  0.00000000E+00  0.00000000E+00  0.00000000E+00
  0.00000000E+00  0.00000000E+00  0.00000000E+00
  0.00000000E+00  0.00000000E+00  0.00000000E+00
  0.00000000E+00  0.00000000E+00  0.00000000E+00
  0.00000000E+00  0.00000000E+00  0.00000000E+00
  0.00000000E+00  0.00000000E+00  0.00000000E+00
  0.00000000E+00  0.00000000E+00  0.00000000E+00
  0.00000000E+00  0.00000000E+00  0.00000000E+00
  0.00000000E+00  0.00000000E+00  0.00000000E+00
  0.00000000E+00  0.00000000E+00  0.00000000E+00
  0.00000000E+00  0.00000000E+00  0.00000000E+00
  0.00000000E+00  0.00000000E+00  0.00000000E+00
  0.00000000E+00  0.00000000E+00  0.00000000E+00
  0.00000000E+00  0.00000000E+00  0.00000000E+00
  0.00000000E+00  0.00000000E+00  0.00000000E+00
  0.00000000E+00  0.00000000E+00  0.00000000E+00
  0.00000000E+00  0.00000000E+00  0.00000000E+00
  0.00000000E+00  0.00000000E+00  0.00000000E+00
  0.00000000E+00  0.00000000E+00  0.00000000E+00
  0.00000000E+00  0.00000000E+00  0.00000000E+00
  0.00000000E+00  0.00000000E+00  0.00000000E+00
  0.00000000E+00  0.00000000E+00  0.00000000E+00
  0.00000000E+00  0.00000000E+00  0.00000000E+00
  0.00000000E+00  0.00000000E+00  0.00000000E+00
  0.00000000E+00  0.00000000E+00  0.00000000E+00
  0.00000000E+00  0.00000000E+00  0.00000000E+00
  0.00000000E+00  0.00000000E+00  0.00000000E+00
  0.00000000E+00  0.00000000E+00  0.00000000E+00
  0.00000000E+00  0.00000000E+00  0.00000000E+00
  0.00000000E+00  0.00000000E+00  0.00000000E+00
  0.00000000E+00  0.00000000E+00  0.00000000E+00
  0.00000000E+00  0.00000000E+00  0.00000000E+00
  0.00000000E+00  0.00000000E+00  0.00000000E+00
  0.00000000E+00  0.00000000E+00  0.00000000E+00
  0.00000000E+00  0.00000000E+00  0.00000000E+00
  0.00000000E+00  0.00000000E+00  0.00000000E+00
  0.00000000E+00  0.00000000E+00  0.00000000E+00
  0.00000000E+00  0.00000000E+00  0.00000000E+00
  0.00000000E+00  0.00000000E+00  0.00000000E+00
  0.00000000E+00  0.00000000E+00  0.00000000E+00
  0.00000000E+00  0.00000000E+00  0.00000000E+00
  0.00000000E+00  0.00000000E+00  0.00000000E+00
