Comment                                 
   1.00000000000000     
    17.0000000000000000    0.0000000000000000    0.0000000000000000
     0.0000000000000000   17.0000000000000000    0.0000000000000000
     0.0000000000000000    0.0000000000000000   17.0000000000000000
   Au
     4
Direct
  0.4264563746610870  0.4561087058398376  0.5000000000000000
  0.5840286699609765  0.4541567109929014  0.5000000000000000
  0.5037375386589685  0.5897609374750358  0.5000000000000000
  0.3461597696601477  0.5917059986334255  0.5000000000000000
 
  0.00000000E+00  0.00000000E+00  0.00000000E+00
  0.00000000E+00  0.00000000E+00  0.00000000E+00
  0.00000000E+00  0.00000000E+00  0.00000000E+00
  0.00000000E+00  0.00000000E+00  0.00000000E+00
