Comment                                 
   1.00000000000000     
    20.0000000000000000    0.0000000000000000    0.0000000000000000
     0.0000000000000000   20.0000000000000000    0.0000000000000000
     0.0000000000000000    0.0000000000000000   20.0000000000000000
   Ni   Au
     3     1
Direct
  0.2932788422637813  0.4328358446717928  0.4424192335751513
  0.3914682406400516  0.4248793454796740  0.4933857483156814
  0.3801464854874936  0.4905114257278669  0.4044730208200988
  0.4947602816087127  0.4461102841206568  0.4264212972890817
 
  0.00000000E+00  0.00000000E+00  0.00000000E+00
  0.00000000E+00  0.00000000E+00  0.00000000E+00
  0.00000000E+00  0.00000000E+00  0.00000000E+00
  0.00000000E+00  0.00000000E+00  0.00000000E+00
