C4                                      
   1.00000000000000     
    14.8063199999999995    0.0000000000000000    0.0000000000000000
    -7.4031599999999997   12.8226492600000004    0.0000000000000000
     0.0000000000000000    0.0000000000000000   18.0000000000000000
   C    Pt   Au
    72     1     3
Direct
  0.0554491191827822  0.1110658402673153  0.3614997871991434
  0.9999525595028160  0.9999788784425192  0.3616164498470908
  0.0555080363822640  0.2777874038911321  0.3609076163301523
  0.9999359716558516  0.1666550559014794  0.3611123192651320
  0.0555900414416257  0.4445135428832643  0.3608743855773184
  0.0000338827975241  0.3334011055950583  0.3608251906787956
  0.0556809065255450  0.6112428781964994  0.3612187076823687
  0.0001098294258810  0.5001155825212749  0.3610040743540068
  0.0556651896507319  0.7779247040780746  0.3616665567752406
  0.0001654720693622  0.6668308210038774  0.3616083042853120
  0.0555179333521849  0.9444869201015251  0.3617142000128553
  0.0001048479791592  0.8334222418892736  0.3617528380607169
  0.2218698079985799  0.1109511288072085  0.3623949842239256
  0.1665413654564389  0.9999717066532057  0.3619626011579129
  0.2220605330099232  0.2777599876241652  0.3617170113630124
  0.1664485512032243  0.1665504075083177  0.3619431875003869
  0.2220626678523487  0.4444923094536364  0.3610969502890242
  0.1665277074404727  0.3334228636039356  0.3610481488053523
  0.2222285016709478  0.6112428781964994  0.3612187076823687
  0.1666724130953909  0.5001155825212749  0.3610040743540068
  0.2223134645370521  0.7779603890741100  0.3615281582480065
  0.1667359994827535  0.6668053389655100  0.3612268953527860
  0.2222450268650817  0.9445841093715472  0.3620988669320582
  0.1667889689093727  0.8335336042279451  0.3617056814599593
  0.3889117825550770  0.1111570251101526  0.3634617270916678
  0.3334736977368422  0.0002807354736944  0.3625009883516128
  0.3873881239451649  0.2770134832237119  0.3666853021312733
  0.3328771975871874  0.1664474409485308  0.3638918639980062
  0.3885431679171631  0.4447433949746156  0.3635532458691273
  0.3327651503572966  0.3331729824147658  0.3634737001361827
  0.3888512746758295  0.6113498969024320  0.3620963769441659
  0.3332504262910803  0.5001420571131447  0.3618235580344447
  0.3889260444273503  0.7779247040780746  0.3616665567752406
  0.3333320189345201  0.6668308210038774  0.3616083042853120
  0.3890056125064660  0.9445841093715472  0.3620988669320582
  0.3334112953185766  0.8335336042279451  0.3617056814599593
  0.5557478508086220  0.1109511288072085  0.3623949842239256
  0.5000970111967575  0.9999717066532057  0.3619626011579129
  0.5562918892785405  0.2770134832237119  0.3666853021312733
  0.5002369133613485  0.1664474409485308  0.3638918639980062
  0.5561573694946631  0.4456481989893319  0.3734265417683460
  0.4994602981120195  0.3322539362240491  0.3733611942954411
  0.5553906249607721  0.6114653504996284  0.3641122633106875
  0.4993347275354765  0.5008950346180470  0.3668575927575120
  0.5555254230402582  0.7779392482922987  0.3620763740012407
  0.4998702201893579  0.6669481269417616  0.3625707401468290
  0.5556355167493408  0.9444869201015251  0.3617142000128553
  0.4999840639101123  0.8334222418892736  0.3617528380607169
  0.7222832510845265  0.1110658402673153  0.3614997871991434
  0.6666929889397082  0.9999788784425192  0.3616164498470908
  0.7223659846142567  0.2777599876241652  0.3617170113630124
  0.6667685263050842  0.1665504075083177  0.3619431875003869
  0.7228667570574530  0.4447433949746156  0.3635532458691273
  0.6670745020574742  0.3331729824147658  0.3634737001361827
  0.7227412555388568  0.6114653504996284  0.3641122633106875
  0.6682269670825605  0.5008950346180470  0.3668575927575120
  0.7221517849584700  0.7776370299169457  0.3626143776870379
  0.6667075351864042  0.6667484103728185  0.3636499749821027
  0.7222151358075806  0.9443818506054313  0.3616940505406134
  0.6666232732812745  0.8333360208447829  0.3621799217065060
  0.8888770125357510  0.1110874850715078  0.3611411496428403
  0.8333064140975068  0.9999461681950024  0.3614882138370206
  0.8889458975088758  0.2777874038911321  0.3609076163301523
  0.8333857542456329  0.1666550559014794  0.3611123192651320
  0.8890961716012882  0.4444923094536364  0.3610969502890242
  0.8335618261634679  0.3334228636039356  0.3610481488053523
  0.8891651522266173  0.6113498969024320  0.3620963769441659
  0.8335583008220553  0.5001420571131447  0.3618235580344447
  0.8890803552520410  0.7779392482922987  0.3620763740012407
  0.8337445767524017  0.6669481269417616  0.3625707401468290
  0.8888332447978513  0.9443818506054313  0.3616940505406134
  0.8333794075635126  0.8333360208447829  0.3621799217065060
  0.5277759584826924  0.3888852469653870  0.4870960899758998
  0.6167594612689058  0.5668522525378066  0.5631742045187664
  0.5266435137142622  0.3866203574285265  0.6347477235346588
  0.4376059226763616  0.2085451753527252  0.5605021842171283
 
  0.00000000E+00  0.00000000E+00  0.00000000E+00
  0.00000000E+00  0.00000000E+00  0.00000000E+00
  0.00000000E+00  0.00000000E+00  0.00000000E+00
  0.00000000E+00  0.00000000E+00  0.00000000E+00
  0.00000000E+00  0.00000000E+00  0.00000000E+00
  0.00000000E+00  0.00000000E+00  0.00000000E+00
  0.00000000E+00  0.00000000E+00  0.00000000E+00
  0.00000000E+00  0.00000000E+00  0.00000000E+00
  0.00000000E+00  0.00000000E+00  0.00000000E+00
  0.00000000E+00  0.00000000E+00  0.00000000E+00
  0.00000000E+00  0.00000000E+00  0.00000000E+00
  0.00000000E+00  0.00000000E+00  0.00000000E+00
  0.00000000E+00  0.00000000E+00  0.00000000E+00
  0.00000000E+00  0.00000000E+00  0.00000000E+00
  0.00000000E+00  0.00000000E+00  0.00000000E+00
  0.00000000E+00  0.00000000E+00  0.00000000E+00
  0.00000000E+00  0.00000000E+00  0.00000000E+00
  0.00000000E+00  0.00000000E+00  0.00000000E+00
  0.00000000E+00  0.00000000E+00  0.00000000E+00
  0.00000000E+00  0.00000000E+00  0.00000000E+00
  0.00000000E+00  0.00000000E+00  0.00000000E+00
  0.00000000E+00  0.00000000E+00  0.00000000E+00
  0.00000000E+00  0.00000000E+00  0.00000000E+00
  0.00000000E+00  0.00000000E+00  0.00000000E+00
  0.00000000E+00  0.00000000E+00  0.00000000E+00
  0.00000000E+00  0.00000000E+00  0.00000000E+00
  0.00000000E+00  0.00000000E+00  0.00000000E+00
  0.00000000E+00  0.00000000E+00  0.00000000E+00
  0.00000000E+00  0.00000000E+00  0.00000000E+00
  0.00000000E+00  0.00000000E+00  0.00000000E+00
  0.00000000E+00  0.00000000E+00  0.00000000E+00
  0.00000000E+00  0.00000000E+00  0.00000000E+00
  0.00000000E+00  0.00000000E+00  0.00000000E+00
  0.00000000E+00  0.00000000E+00  0.00000000E+00
  0.00000000E+00  0.00000000E+00  0.00000000E+00
  0.00000000E+00  0.00000000E+00  0.00000000E+00
  0.00000000E+00  0.00000000E+00  0.00000000E+00
  0.00000000E+00  0.00000000E+00  0.00000000E+00
  0.00000000E+00  0.00000000E+00  0.00000000E+00
  0.00000000E+00  0.00000000E+00  0.00000000E+00
  0.00000000E+00  0.00000000E+00  0.00000000E+00
  0.00000000E+00  0.00000000E+00  0.00000000E+00
  0.00000000E+00  0.00000000E+00  0.00000000E+00
  0.00000000E+00  0.00000000E+00  0.00000000E+00
  0.00000000E+00  0.00000000E+00  0.00000000E+00
  0.00000000E+00  0.00000000E+00  0.00000000E+00
  0.00000000E+00  0.00000000E+00  0.00000000E+00
  0.00000000E+00  0.00000000E+00  0.00000000E+00
  0.00000000E+00  0.00000000E+00  0.00000000E+00
  0.00000000E+00  0.00000000E+00  0.00000000E+00
  0.00000000E+00  0.00000000E+00  0.00000000E+00
  0.00000000E+00  0.00000000E+00  0.00000000E+00
  0.00000000E+00  0.00000000E+00  0.00000000E+00
  0.00000000E+00  0.00000000E+00  0.00000000E+00
  0.00000000E+00  0.00000000E+00  0.00000000E+00
  0.00000000E+00  0.00000000E+00  0.00000000E+00
  0.00000000E+00  0.00000000E+00  0.00000000E+00
  0.00000000E+00  0.00000000E+00  0.00000000E+00
  0.00000000E+00  0.00000000E+00  0.00000000E+00
  0.00000000E+00  0.00000000E+00  0.00000000E+00
  0.00000000E+00  0.00000000E+00  0.00000000E+00
  0.00000000E+00  0.00000000E+00  0.00000000E+00
  0.00000000E+00  0.00000000E+00  0.00000000E+00
  0.00000000E+00  0.00000000E+00  0.00000000E+00
  0.00000000E+00  0.00000000E+00  0.00000000E+00
  0.00000000E+00  0.00000000E+00  0.00000000E+00
  0.00000000E+00  0.00000000E+00  0.00000000E+00
  0.00000000E+00  0.00000000E+00  0.00000000E+00
  0.00000000E+00  0.00000000E+00  0.00000000E+00
  0.00000000E+00  0.00000000E+00  0.00000000E+00
  0.00000000E+00  0.00000000E+00  0.00000000E+00
  0.00000000E+00  0.00000000E+00  0.00000000E+00
  0.00000000E+00  0.00000000E+00  0.00000000E+00
  0.00000000E+00  0.00000000E+00  0.00000000E+00
  0.00000000E+00  0.00000000E+00  0.00000000E+00
  0.00000000E+00  0.00000000E+00  0.00000000E+00
