C4                                      
   1.00000000000000     
    14.8063199999999995    0.0000000000000000    0.0000000000000000
    -7.4031599999999997   12.8226492600000004    0.0000000000000000
     0.0000000000000000    0.0000000000000000   14.5322800000000001
   C    Ag
    72     4
Direct
  0.0554867024021846  0.1110568461904151  0.4481929547020727
  0.9999937555194265  0.9999902885251117  0.4481926617092853
  0.0555190795710203  0.2777502514556716  0.4484133475087333
  0.9999761897198525  0.1666422825528926  0.4483849662106678
  0.0554833080249892  0.4444283764566777  0.4482699095922840
  0.9999694323348862  0.3333347156858366  0.4484336966861662
  0.0555482687913624  0.6110991191719748  0.4484103314201562
  0.0000022692534216  0.5000079318255999  0.4483448525351506
  0.0555616870855644  0.7777715975437332  0.4485100491740965
  0.0000274016339006  0.6666736432918228  0.4483854580542896
  0.0555300840384163  0.9444411430964834  0.4482673321495767
  0.0000055102863499  0.8333431512127447  0.4483015348711277
  0.2221780649483591  0.1110606880297667  0.4480568387235806
  0.1666538743515105  0.9999827452771797  0.4483005641675959
  0.2220155311709391  0.2776155639428453  0.4478617877900746
  0.1665526257434280  0.1665556329702085  0.4479800316109532
  0.2220342518681448  0.4444310394649236  0.4475951339019915
  0.1665811588759922  0.3332919494035593  0.4481498321645603
  0.2221796001476690  0.6111077586631168  0.4480276069110616
  0.1665701683158289  0.5000202683245192  0.4478844421818522
  0.2222078354019672  0.7777719790219280  0.4485101701010024
  0.1666433202991442  0.6666730190384840  0.4483851895865811
  0.2222169025991718  0.9444358182986150  0.4484771070970055
  0.1666636684880771  0.8333293971141345  0.4486560432262792
  0.3888811499194773  0.1110610681691355  0.4480580332174071
  0.3333268222659314  0.9999831059798510  0.4483011875401459
  0.3888088555637665  0.2776207666901129  0.4476824928223877
  0.3332912685229275  0.1665841454510328  0.4479001585476610
  0.3881666745332168  0.4440728285790456  0.4489386735642498
  0.3330248083815235  0.3329884299187000  0.4477987817091176
  0.3887541656560458  0.6111528992823807  0.4473398110225446
  0.3330001735642796  0.5000687674713689  0.4474644471473042
  0.3888766198457390  0.7778030867809775  0.4480211786480837
  0.3332850299627452  0.6666914564966646  0.4476725050653414
  0.3889089771349248  0.9444416491711891  0.4482678923282535
  0.3333363389364763  0.8333440958711478  0.4483015283858549
  0.5555682457143618  0.1110571976278436  0.4481936959726767
  0.4999946413730001  0.9999906828803944  0.4481927255003555
  0.5555974182951005  0.2776155534364904  0.4478664131591827
  0.5000009347706538  0.1665563343698366  0.4479825602257961
  0.5558995033502754  0.4440710477592091  0.4489478096153405
  0.4999591058624873  0.3329856696394984  0.4478048076901757
  0.5558821555112630  0.6117684666928014  0.4493071694574411
  0.4999683580523282  0.4999434596610612  0.4509073029112045
  0.5555735753410502  0.7779425035881289  0.4480590673942899
  0.4999195292402518  0.6669284663224389  0.4480879990353515
  0.5555523309731143  0.9444857758805441  0.4481846510853487
  0.4999686534211847  0.8334228262459504  0.4479839163968578
  0.7222365688272205  0.1111073024309732  0.4484995064376776
  0.6666718091300581  0.0000172810313757  0.4483498240300179
  0.7222286385794874  0.2777510941197434  0.4484164664523220
  0.6666633115616207  0.1666427468093588  0.4483863089976836
  0.7223937959546447  0.4444311270799020  0.4475965111814730
  0.6667085838521558  0.3332927282735554  0.4481525263768873
  0.7223951993539330  0.6111520083314801  0.4473388022447295
  0.6670638852722064  0.5000675512858734  0.4474680701755247
  0.7223671923062440  0.7779424807889228  0.4480590859833953
  0.6670056608357413  0.6669279781464255  0.4480876417292308
  0.7222376247730935  0.9444777961492221  0.4483832026895840
  0.6666969948402794  0.8333952764365335  0.4483134629659631
  0.8888675439847233  0.1111064763420160  0.4484991569368759
  0.8333424295698109  0.0000159415158762  0.4483505114749562
  0.8888800659073155  0.2777620122417943  0.4485716878712793
  0.8333283820912598  0.1666593288233074  0.4486573886380256
  0.8889415573111492  0.4444282271655666  0.4482679391981108
  0.8333632580588173  0.3333351350081060  0.4484351405498685
  0.8889257389187648  0.6111078667568179  0.4480264203009128
  0.8334468736255971  0.5000211984060385  0.4478842743097218
  0.8889246944956923  0.7778024522054068  0.4480211106309824
  0.8334037822337521  0.6666910144190723  0.4476715075314033
  0.8889309383719564  0.9444846377069354  0.4481852644847564
  0.8334526947761205  0.8334221635060857  0.4479845915453708
  0.5002921482992022  0.5004144398618138  0.6199031231776999
  0.3372981776933344  0.5000228365073696  0.7120193239145109
  0.5000194391770236  0.5001061110988019  0.7995936949013469
  0.6627698031350775  0.5000298170275741  0.7122851747509458
 
  0.00000000E+00  0.00000000E+00  0.00000000E+00
  0.00000000E+00  0.00000000E+00  0.00000000E+00
  0.00000000E+00  0.00000000E+00  0.00000000E+00
  0.00000000E+00  0.00000000E+00  0.00000000E+00
  0.00000000E+00  0.00000000E+00  0.00000000E+00
  0.00000000E+00  0.00000000E+00  0.00000000E+00
  0.00000000E+00  0.00000000E+00  0.00000000E+00
  0.00000000E+00  0.00000000E+00  0.00000000E+00
  0.00000000E+00  0.00000000E+00  0.00000000E+00
  0.00000000E+00  0.00000000E+00  0.00000000E+00
  0.00000000E+00  0.00000000E+00  0.00000000E+00
  0.00000000E+00  0.00000000E+00  0.00000000E+00
  0.00000000E+00  0.00000000E+00  0.00000000E+00
  0.00000000E+00  0.00000000E+00  0.00000000E+00
  0.00000000E+00  0.00000000E+00  0.00000000E+00
  0.00000000E+00  0.00000000E+00  0.00000000E+00
  0.00000000E+00  0.00000000E+00  0.00000000E+00
  0.00000000E+00  0.00000000E+00  0.00000000E+00
  0.00000000E+00  0.00000000E+00  0.00000000E+00
  0.00000000E+00  0.00000000E+00  0.00000000E+00
  0.00000000E+00  0.00000000E+00  0.00000000E+00
  0.00000000E+00  0.00000000E+00  0.00000000E+00
  0.00000000E+00  0.00000000E+00  0.00000000E+00
  0.00000000E+00  0.00000000E+00  0.00000000E+00
  0.00000000E+00  0.00000000E+00  0.00000000E+00
  0.00000000E+00  0.00000000E+00  0.00000000E+00
  0.00000000E+00  0.00000000E+00  0.00000000E+00
  0.00000000E+00  0.00000000E+00  0.00000000E+00
  0.00000000E+00  0.00000000E+00  0.00000000E+00
  0.00000000E+00  0.00000000E+00  0.00000000E+00
  0.00000000E+00  0.00000000E+00  0.00000000E+00
  0.00000000E+00  0.00000000E+00  0.00000000E+00
  0.00000000E+00  0.00000000E+00  0.00000000E+00
  0.00000000E+00  0.00000000E+00  0.00000000E+00
  0.00000000E+00  0.00000000E+00  0.00000000E+00
  0.00000000E+00  0.00000000E+00  0.00000000E+00
  0.00000000E+00  0.00000000E+00  0.00000000E+00
  0.00000000E+00  0.00000000E+00  0.00000000E+00
  0.00000000E+00  0.00000000E+00  0.00000000E+00
  0.00000000E+00  0.00000000E+00  0.00000000E+00
  0.00000000E+00  0.00000000E+00  0.00000000E+00
  0.00000000E+00  0.00000000E+00  0.00000000E+00
  0.00000000E+00  0.00000000E+00  0.00000000E+00
  0.00000000E+00  0.00000000E+00  0.00000000E+00
  0.00000000E+00  0.00000000E+00  0.00000000E+00
  0.00000000E+00  0.00000000E+00  0.00000000E+00
  0.00000000E+00  0.00000000E+00  0.00000000E+00
  0.00000000E+00  0.00000000E+00  0.00000000E+00
  0.00000000E+00  0.00000000E+00  0.00000000E+00
  0.00000000E+00  0.00000000E+00  0.00000000E+00
  0.00000000E+00  0.00000000E+00  0.00000000E+00
  0.00000000E+00  0.00000000E+00  0.00000000E+00
  0.00000000E+00  0.00000000E+00  0.00000000E+00
  0.00000000E+00  0.00000000E+00  0.00000000E+00
  0.00000000E+00  0.00000000E+00  0.00000000E+00
  0.00000000E+00  0.00000000E+00  0.00000000E+00
  0.00000000E+00  0.00000000E+00  0.00000000E+00
  0.00000000E+00  0.00000000E+00  0.00000000E+00
  0.00000000E+00  0.00000000E+00  0.00000000E+00
  0.00000000E+00  0.00000000E+00  0.00000000E+00
  0.00000000E+00  0.00000000E+00  0.00000000E+00
  0.00000000E+00  0.00000000E+00  0.00000000E+00
  0.00000000E+00  0.00000000E+00  0.00000000E+00
  0.00000000E+00  0.00000000E+00  0.00000000E+00
  0.00000000E+00  0.00000000E+00  0.00000000E+00
  0.00000000E+00  0.00000000E+00  0.00000000E+00
  0.00000000E+00  0.00000000E+00  0.00000000E+00
  0.00000000E+00  0.00000000E+00  0.00000000E+00
  0.00000000E+00  0.00000000E+00  0.00000000E+00
  0.00000000E+00  0.00000000E+00  0.00000000E+00
  0.00000000E+00  0.00000000E+00  0.00000000E+00
  0.00000000E+00  0.00000000E+00  0.00000000E+00
  0.00000000E+00  0.00000000E+00  0.00000000E+00
  0.00000000E+00  0.00000000E+00  0.00000000E+00
  0.00000000E+00  0.00000000E+00  0.00000000E+00
  0.00000000E+00  0.00000000E+00  0.00000000E+00
