C4                                      
   1.00000000000000     
    14.8063199999999995    0.0000000000000000    0.0000000000000000
    -7.4031599999999997   12.8226492600000004    0.0000000000000000
     0.0000000000000000    0.0000000000000000   18.0000000000000000
   C    Ag
    72     4
Direct
  0.0548892687375542  0.1087061472329438  0.3618420777084523
  0.9993254440351791  0.9975860568538266  0.3619596389972202
  0.0546788856251723  0.2752215250116237  0.3624376622720007
  0.9992558598281960  0.1641913434407840  0.3621187444394707
  0.0546619970013111  0.4420182183550025  0.3630446085261809
  0.9992059699945699  0.3309014333543772  0.3627652162023054
  0.0548370029215590  0.6087403445197381  0.3626932685688544
  0.9992141064909958  0.4976080258648210  0.3626813966668507
  0.0548896555680614  0.7753943627497293  0.3622315350061456
  0.9993145874463636  0.6643056424192153  0.3622566937821077
  0.0548820314986997  0.9420583343712039  0.3619300241492240
  0.9993207524271241  0.8309558960518117  0.3620569608762310
  0.2216260922160416  0.1087157712796625  0.3612932180859403
  0.1660131474554660  0.9976387450634547  0.3617722781924044
  0.2215082541194491  0.2752175741655236  0.3613772431326225
  0.1659729753487085  0.1641983801980587  0.3613907888512884
  0.2209221592151565  0.4417358320163842  0.3641391855589973
  0.1656953445681282  0.3305464488134078  0.3625172290125818
  0.2214906787470028  0.6088171602073942  0.3635102360900433
  0.1657069219003660  0.4976974894111095  0.3636267312902390
  0.2215468733308370  0.7754500304133529  0.3628920715170239
  0.1659318832623455  0.6643359341385633  0.3630975326765693
  0.2215952492020179  0.9421094550147586  0.3620695466254986
  0.1660013344639069  0.8309662918962744  0.3624239072370017
  0.3882559311202982  0.1087377340297664  0.3613073770446675
  0.3326657372553399  0.9976704563828847  0.3620345949908383
  0.3883448367423128  0.2752895160805124  0.3600663505159147
  0.3327217331537469  0.1642227262028371  0.3607871989870901
  0.3886786218596399  0.4417011549308896  0.3620658178717520
  0.3326913719907765  0.3305842937656323  0.3607471618003117
  0.3886141310957285  0.6094279563562353  0.3641179589080608
  0.3327935441405501  0.4976431582452250  0.3649660584633310
  0.3883245678472917  0.7756445673293584  0.3633181231510747
  0.3326700994839271  0.6645718118377673  0.3637412704242209
  0.3882380932246647  0.9421269889112693  0.3625360779445117
  0.3326822135341629  0.8310773651679995  0.3629865615854726
  0.5549082577813778  0.1087842038683746  0.3618725217944956
  0.4993284973961565  0.9976491665039973  0.3624560910553427
  0.5548889922098965  0.2753623179400009  0.3606035584759226
  0.4993604175045618  0.1643109764666590  0.3611819151124749
  0.5550522589566569  0.4420463827947998  0.3598270256171361
  0.4993487045980274  0.3309566414329836  0.3599826835907862
  0.5550992223161018  0.6087896085512128  0.3615396694053530
  0.4997828078966933  0.4976579480608407  0.3606717590899038
  0.5550665556209111  0.7755828359254409  0.3627907935270898
  0.4997155898939027  0.6645695284599640  0.3627856437040009
  0.5548969003371553  0.9421342458674999  0.3627128878782386
  0.4993998874541319  0.8310748923781333  0.3630865407432111
  0.7215608627776220  0.1087493112109357  0.3622215282535350
  0.6660277062820512  0.9976712200224043  0.3624584060835545
  0.7215275388918982  0.2753907577108947  0.3615894092529004
  0.6659745851427488  0.1643004842147207  0.3619330601709052
  0.7216073845946198  0.4420924818676752  0.3608473805294068
  0.6660077728370766  0.3309346587546926  0.3609091456795568
  0.7216053622136158  0.6087053839204231  0.3611660719380438
  0.6660974038922021  0.4976486517389560  0.3604135746743680
  0.7216169158452885  0.7754307194722827  0.3620533843043745
  0.6661034673797772  0.6643300999706838  0.3615377506593376
  0.7216159799047617  0.9421419040301799  0.3624191867488946
  0.6661264190111282  0.8310346416488130  0.3624117715007529
  0.8881711896654707  0.1087021176296190  0.3622533403567019
  0.8326718311941192  0.9976248039020916  0.3622581370972142
  0.8881717336948043  0.2753890500185321  0.3624055527690686
  0.8326509955813606  0.1642700159537611  0.3622815688393857
  0.8881478471260138  0.4420347142709673  0.3621288067618309
  0.8326301712605826  0.3309569955981786  0.3620726889927113
  0.8881961765978517  0.6087201311894432  0.3618040998947194
  0.8326500962074945  0.4976406804015099  0.3615936515427975
  0.8882446222151046  0.7754020265512978  0.3619612568652997
  0.8326679299873874  0.6642593661017457  0.3616743164029472
  0.8882324836215076  0.9420564089490142  0.3621152265689176
  0.8327203727520853  0.8309743428513130  0.3620456357467177
  0.3303688364639044  0.4850703445790145  0.5013362234788659
  0.3033334132140766  0.4647682365355763  0.6445125376298506
  0.4422986497234689  0.4154912874455832  0.5797062966751483
  0.5790891731037533  0.3597829331264037  0.5480801334356613
 
  0.00000000E+00  0.00000000E+00  0.00000000E+00
  0.00000000E+00  0.00000000E+00  0.00000000E+00
  0.00000000E+00  0.00000000E+00  0.00000000E+00
  0.00000000E+00  0.00000000E+00  0.00000000E+00
  0.00000000E+00  0.00000000E+00  0.00000000E+00
  0.00000000E+00  0.00000000E+00  0.00000000E+00
  0.00000000E+00  0.00000000E+00  0.00000000E+00
  0.00000000E+00  0.00000000E+00  0.00000000E+00
  0.00000000E+00  0.00000000E+00  0.00000000E+00
  0.00000000E+00  0.00000000E+00  0.00000000E+00
  0.00000000E+00  0.00000000E+00  0.00000000E+00
  0.00000000E+00  0.00000000E+00  0.00000000E+00
  0.00000000E+00  0.00000000E+00  0.00000000E+00
  0.00000000E+00  0.00000000E+00  0.00000000E+00
  0.00000000E+00  0.00000000E+00  0.00000000E+00
  0.00000000E+00  0.00000000E+00  0.00000000E+00
  0.00000000E+00  0.00000000E+00  0.00000000E+00
  0.00000000E+00  0.00000000E+00  0.00000000E+00
  0.00000000E+00  0.00000000E+00  0.00000000E+00
  0.00000000E+00  0.00000000E+00  0.00000000E+00
  0.00000000E+00  0.00000000E+00  0.00000000E+00
  0.00000000E+00  0.00000000E+00  0.00000000E+00
  0.00000000E+00  0.00000000E+00  0.00000000E+00
  0.00000000E+00  0.00000000E+00  0.00000000E+00
  0.00000000E+00  0.00000000E+00  0.00000000E+00
  0.00000000E+00  0.00000000E+00  0.00000000E+00
  0.00000000E+00  0.00000000E+00  0.00000000E+00
  0.00000000E+00  0.00000000E+00  0.00000000E+00
  0.00000000E+00  0.00000000E+00  0.00000000E+00
  0.00000000E+00  0.00000000E+00  0.00000000E+00
  0.00000000E+00  0.00000000E+00  0.00000000E+00
  0.00000000E+00  0.00000000E+00  0.00000000E+00
  0.00000000E+00  0.00000000E+00  0.00000000E+00
  0.00000000E+00  0.00000000E+00  0.00000000E+00
  0.00000000E+00  0.00000000E+00  0.00000000E+00
  0.00000000E+00  0.00000000E+00  0.00000000E+00
  0.00000000E+00  0.00000000E+00  0.00000000E+00
  0.00000000E+00  0.00000000E+00  0.00000000E+00
  0.00000000E+00  0.00000000E+00  0.00000000E+00
  0.00000000E+00  0.00000000E+00  0.00000000E+00
  0.00000000E+00  0.00000000E+00  0.00000000E+00
  0.00000000E+00  0.00000000E+00  0.00000000E+00
  0.00000000E+00  0.00000000E+00  0.00000000E+00
  0.00000000E+00  0.00000000E+00  0.00000000E+00
  0.00000000E+00  0.00000000E+00  0.00000000E+00
  0.00000000E+00  0.00000000E+00  0.00000000E+00
  0.00000000E+00  0.00000000E+00  0.00000000E+00
  0.00000000E+00  0.00000000E+00  0.00000000E+00
  0.00000000E+00  0.00000000E+00  0.00000000E+00
  0.00000000E+00  0.00000000E+00  0.00000000E+00
  0.00000000E+00  0.00000000E+00  0.00000000E+00
  0.00000000E+00  0.00000000E+00  0.00000000E+00
  0.00000000E+00  0.00000000E+00  0.00000000E+00
  0.00000000E+00  0.00000000E+00  0.00000000E+00
  0.00000000E+00  0.00000000E+00  0.00000000E+00
  0.00000000E+00  0.00000000E+00  0.00000000E+00
  0.00000000E+00  0.00000000E+00  0.00000000E+00
  0.00000000E+00  0.00000000E+00  0.00000000E+00
  0.00000000E+00  0.00000000E+00  0.00000000E+00
  0.00000000E+00  0.00000000E+00  0.00000000E+00
  0.00000000E+00  0.00000000E+00  0.00000000E+00
  0.00000000E+00  0.00000000E+00  0.00000000E+00
  0.00000000E+00  0.00000000E+00  0.00000000E+00
  0.00000000E+00  0.00000000E+00  0.00000000E+00
  0.00000000E+00  0.00000000E+00  0.00000000E+00
  0.00000000E+00  0.00000000E+00  0.00000000E+00
  0.00000000E+00  0.00000000E+00  0.00000000E+00
  0.00000000E+00  0.00000000E+00  0.00000000E+00
  0.00000000E+00  0.00000000E+00  0.00000000E+00
  0.00000000E+00  0.00000000E+00  0.00000000E+00
  0.00000000E+00  0.00000000E+00  0.00000000E+00
  0.00000000E+00  0.00000000E+00  0.00000000E+00
  0.00000000E+00  0.00000000E+00  0.00000000E+00
  0.00000000E+00  0.00000000E+00  0.00000000E+00
  0.00000000E+00  0.00000000E+00  0.00000000E+00
  0.00000000E+00  0.00000000E+00  0.00000000E+00
