POSCAR                                  
   1.00000000000000     
    20.0000000000000000    0.0000000000000000    0.0000000000000000
     0.0000000000000000   20.0000000000000000    0.0000000000000000
     0.0000000000000000    0.0000000000000000   20.0000000000000000
   Ni   Au
     1     1
Direct
  0.4544924204942475  0.2719200077048427  0.6099369499999980
  0.5701494295057472  0.2889996922951568  0.6099370000000022
 
  0.00000000E+00  0.00000000E+00  0.00000000E+00
  0.00000000E+00  0.00000000E+00  0.00000000E+00
