C4                                      
   1.00000000000000     
    14.8063199999999995    0.0000000000000000    0.0000000000000000
    -7.4031599999999997   12.8226492600000004    0.0000000000000000
     0.0000000000000000    0.0000000000000000   18.0000000000000000
   C    Au
    72     4
Direct
  0.0553689326431908  0.1108316211407541  0.3592415604463923
  0.9998727758502568  0.9997567703230104  0.3597285657897444
  0.0550853807236464  0.2772447403200573  0.3584979141226796
  0.9997219792905199  0.1662289984479486  0.3590330098059127
  0.0550937949469628  0.4440010206579643  0.3586877736767988
  0.9996997082474550  0.3329535797180156  0.3588607028029713
  0.0552905331661151  0.6108109787784812  0.3592305201898043
  0.9996817276913106  0.4996734887790950  0.3588229071028550
  0.0554244293000181  0.7775335637960978  0.3597185282821940
  0.9998469543247026  0.6663846883001199  0.3592677764413139
  0.0554169676483056  0.9441674052965965  0.3597719545110820
  0.9998964330877840  0.8331261961755700  0.3597142879157005
  0.2221292184975567  0.1108316211407541  0.3592415604463923
  0.1665506644727515  0.9997567703230104  0.3597285657897444
  0.2219820912852768  0.2772976525705602  0.3585350979682644
  0.1665514499011991  0.1664362298024074  0.3589149951589405
  0.2206549475617194  0.4433512127351520  0.3606235408373735
  0.1660293860859525  0.3325839543433347  0.3585351771534206
  0.2219065634290871  0.6109472739292059  0.3610483508234097
  0.1660622713275615  0.4995509838632941  0.3595662789962759
  0.2220253332916613  0.7775396783798669  0.3609433369089530
  0.1664275094614140  0.6664534785775658  0.3602136481566731
  0.2220787232629604  0.9442186979677842  0.3601971421338277
  0.1664740406205425  0.8331006452937046  0.3603120096373118
  0.3887494801963882  0.1107443666471255  0.3598600905525444
  0.3331930682009343  0.9997624628401240  0.3605047273639528
  0.3888258895964185  0.2772447403200573  0.3584979141226796
  0.3331736891574124  0.1662289984479486  0.3590330098059127
  0.3893627951734331  0.4433512127351520  0.3606235408373735
  0.3332212382574014  0.3325839543433347  0.3585351771534206
  0.3891138111819004  0.6115610923638002  0.3682779598126871
  0.3327421782871625  0.4988176865743341  0.3662870303547834
  0.3886734698196648  0.7777432202637158  0.3635323447717127
  0.3327459957897503  0.6669129122932844  0.3644205376747536
  0.3887600572081453  0.9442620499648982  0.3614650171008975
  0.3331157077816016  0.8331920780445898  0.3619430360687375
  0.5553863662435461  0.1107768533423084  0.3608339014099329
  0.4998042961047204  0.9997034200649324  0.3617465378779912
  0.5554719130821937  0.2774154213467668  0.3594240485504088
  0.4998655900224875  0.1663098590194210  0.3600408706770111
  0.5555737657109958  0.4440010206579643  0.3586877736767988
  0.4999205314705506  0.3329535797180156  0.3588607028029713
  0.5557072405001193  0.6109472739292059  0.3610483508234097
  0.5001553725357297  0.4995509838632941  0.3595662789962759
  0.5557362804440587  0.7777432202637158  0.3635323447717127
  0.5008335865035392  0.6669129122932844  0.3644205376747536
  0.5553818818778069  0.9440972337556204  0.3625663783955275
  0.4999238066036824  0.8331809432073669  0.3637458709139594
  0.7220570170987486  0.1107768533423084  0.3608339014099329
  0.6665657939602099  0.9997034200649324  0.3617465378779912
  0.7220301600772245  0.2773937901544485  0.3597526000877238
  0.6665174246554599  0.1663681793109362  0.3605623258232313
  0.7221031679767833  0.4441220341430707  0.3589283192297827
  0.6665063167412484  0.3329813513016759  0.3593668948428785
  0.7221869756123596  0.6108109787784812  0.3592305201898043
  0.6666584210877744  0.4996734887790950  0.3588229071028550
  0.7221808850881999  0.7775396783798669  0.3609433369089530
  0.6666926291161346  0.6664534785775658  0.3602136481566731
  0.7221685227567605  0.9442620499648982  0.3614650171008975
  0.6667430302629853  0.8331920780445898  0.3619430360687375
  0.8886614264507386  0.1107443666471255  0.3598600905525444
  0.8332360546392010  0.9997624628401240  0.3605047273639528
  0.8886100382645665  0.2774154213467668  0.3594240485504088
  0.8331109389969242  0.1663098590194210  0.3600408706770111
  0.8886853961662950  0.4441220341430707  0.3589283192297827
  0.8331417045604326  0.3329813513016759  0.3593668948428785
  0.8887242483120943  0.6107819666241809  0.3589876648809209
  0.8332024597144354  0.4997382494288729  0.3589043603947033
  0.8887756644960874  0.7775335637960978  0.3597185282821940
  0.8332044039754223  0.6663846883001199  0.3592677764413139
  0.8888065047048244  0.9442186979677842  0.3601971421338277
  0.8332932646731592  0.8331006452937046  0.3603120096373118
  0.1770498045061402  0.3741337868693577  0.5704653629506851
  0.3549123043288915  0.5431579286577772  0.6359374965040701
  0.3459739415460845  0.5252812130921640  0.4914908325198866
  0.3637506523632155  0.3741337868693577  0.5704653629506851
 
  0.00000000E+00  0.00000000E+00  0.00000000E+00
  0.00000000E+00  0.00000000E+00  0.00000000E+00
  0.00000000E+00  0.00000000E+00  0.00000000E+00
  0.00000000E+00  0.00000000E+00  0.00000000E+00
  0.00000000E+00  0.00000000E+00  0.00000000E+00
  0.00000000E+00  0.00000000E+00  0.00000000E+00
  0.00000000E+00  0.00000000E+00  0.00000000E+00
  0.00000000E+00  0.00000000E+00  0.00000000E+00
  0.00000000E+00  0.00000000E+00  0.00000000E+00
  0.00000000E+00  0.00000000E+00  0.00000000E+00
  0.00000000E+00  0.00000000E+00  0.00000000E+00
  0.00000000E+00  0.00000000E+00  0.00000000E+00
  0.00000000E+00  0.00000000E+00  0.00000000E+00
  0.00000000E+00  0.00000000E+00  0.00000000E+00
  0.00000000E+00  0.00000000E+00  0.00000000E+00
  0.00000000E+00  0.00000000E+00  0.00000000E+00
  0.00000000E+00  0.00000000E+00  0.00000000E+00
  0.00000000E+00  0.00000000E+00  0.00000000E+00
  0.00000000E+00  0.00000000E+00  0.00000000E+00
  0.00000000E+00  0.00000000E+00  0.00000000E+00
  0.00000000E+00  0.00000000E+00  0.00000000E+00
  0.00000000E+00  0.00000000E+00  0.00000000E+00
  0.00000000E+00  0.00000000E+00  0.00000000E+00
  0.00000000E+00  0.00000000E+00  0.00000000E+00
  0.00000000E+00  0.00000000E+00  0.00000000E+00
  0.00000000E+00  0.00000000E+00  0.00000000E+00
  0.00000000E+00  0.00000000E+00  0.00000000E+00
  0.00000000E+00  0.00000000E+00  0.00000000E+00
  0.00000000E+00  0.00000000E+00  0.00000000E+00
  0.00000000E+00  0.00000000E+00  0.00000000E+00
  0.00000000E+00  0.00000000E+00  0.00000000E+00
  0.00000000E+00  0.00000000E+00  0.00000000E+00
  0.00000000E+00  0.00000000E+00  0.00000000E+00
  0.00000000E+00  0.00000000E+00  0.00000000E+00
  0.00000000E+00  0.00000000E+00  0.00000000E+00
  0.00000000E+00  0.00000000E+00  0.00000000E+00
  0.00000000E+00  0.00000000E+00  0.00000000E+00
  0.00000000E+00  0.00000000E+00  0.00000000E+00
  0.00000000E+00  0.00000000E+00  0.00000000E+00
  0.00000000E+00  0.00000000E+00  0.00000000E+00
  0.00000000E+00  0.00000000E+00  0.00000000E+00
  0.00000000E+00  0.00000000E+00  0.00000000E+00
  0.00000000E+00  0.00000000E+00  0.00000000E+00
  0.00000000E+00  0.00000000E+00  0.00000000E+00
  0.00000000E+00  0.00000000E+00  0.00000000E+00
  0.00000000E+00  0.00000000E+00  0.00000000E+00
  0.00000000E+00  0.00000000E+00  0.00000000E+00
  0.00000000E+00  0.00000000E+00  0.00000000E+00
  0.00000000E+00  0.00000000E+00  0.00000000E+00
  0.00000000E+00  0.00000000E+00  0.00000000E+00
  0.00000000E+00  0.00000000E+00  0.00000000E+00
  0.00000000E+00  0.00000000E+00  0.00000000E+00
  0.00000000E+00  0.00000000E+00  0.00000000E+00
  0.00000000E+00  0.00000000E+00  0.00000000E+00
  0.00000000E+00  0.00000000E+00  0.00000000E+00
  0.00000000E+00  0.00000000E+00  0.00000000E+00
  0.00000000E+00  0.00000000E+00  0.00000000E+00
  0.00000000E+00  0.00000000E+00  0.00000000E+00
  0.00000000E+00  0.00000000E+00  0.00000000E+00
  0.00000000E+00  0.00000000E+00  0.00000000E+00
  0.00000000E+00  0.00000000E+00  0.00000000E+00
  0.00000000E+00  0.00000000E+00  0.00000000E+00
  0.00000000E+00  0.00000000E+00  0.00000000E+00
  0.00000000E+00  0.00000000E+00  0.00000000E+00
  0.00000000E+00  0.00000000E+00  0.00000000E+00
  0.00000000E+00  0.00000000E+00  0.00000000E+00
  0.00000000E+00  0.00000000E+00  0.00000000E+00
  0.00000000E+00  0.00000000E+00  0.00000000E+00
  0.00000000E+00  0.00000000E+00  0.00000000E+00
  0.00000000E+00  0.00000000E+00  0.00000000E+00
  0.00000000E+00  0.00000000E+00  0.00000000E+00
  0.00000000E+00  0.00000000E+00  0.00000000E+00
  0.00000000E+00  0.00000000E+00  0.00000000E+00
  0.00000000E+00  0.00000000E+00  0.00000000E+00
  0.00000000E+00  0.00000000E+00  0.00000000E+00
  0.00000000E+00  0.00000000E+00  0.00000000E+00
