C4                                      
   1.00000000000000     
    14.8063199999999995    0.0000000000000000    0.0000000000000000
    -7.4031599999999997   12.8226492600000004    0.0000000000000000
     0.0000000000000000    0.0000000000000000   18.0000000000000000
   C    Ni
    72     2
Direct
  0.0554291680295762  0.1108395857064011  0.3633914451490412
  0.9999479496837012  0.9998303045321393  0.3634966338229546
  0.0546040076945715  0.2772618066592969  0.3631861016801423
  0.9997359263530683  0.1665168042216862  0.3633812367942895
  0.0553779516811943  0.4445738467668576  0.3633342763833340
  0.9996931449143460  0.3332041132331440  0.3633342763833340
  0.0555663780055511  0.6111587756993799  0.3634457342545829
  0.9999323709749959  0.5000386474190606  0.3634580325667400
  0.0555238713033361  0.7777266749281253  0.3633539148315066
  0.9999972149462124  0.6667321427213864  0.3633514393921828
  0.0555374152115178  0.9443994281997803  0.3634562994255646
  0.9999641601657956  0.8332568925907111  0.3633662223232648
  0.2221152815064755  0.1107989922130201  0.3633585656441198
  0.1666529325334594  0.9998864819103019  0.3634633080644036
  0.2218575201391317  0.2770637801556646  0.3624314711304777
  0.1661774579866702  0.1657185529324039  0.3632171254123620
  0.2218960445218627  0.4448330269037584  0.3624038077935126
  0.1659520676181145  0.3329449330962433  0.3624038077935126
  0.2221080721313839  0.6112612357783149  0.3633812367942895
  0.1662312910352597  0.5005162333407043  0.3631861016801423
  0.2222417727764991  0.7778845959373513  0.3635288072143013
  0.1665866471650972  0.6667473189128685  0.3634896116808974
  0.2222926870151198  0.9443816675411867  0.3634996386295484
  0.1667092921334685  0.8333188954252009  0.3634711316561052
  0.3889426408975254  0.1110257438629958  0.3634616424707033
  0.3333046466723388  0.9998832871139101  0.3634956005525822
  0.3894190527300410  0.2773375879901323  0.3632517245657283
  0.3334810965241672  0.1664784590482498  0.3633683704861284
  0.3896261585199383  0.4447749544118338  0.3624584300689264
  0.3337402541081076  0.3330030055881679  0.3624584300689264
  0.3893478550542895  0.6120594870675973  0.3632171254123620
  0.3336828299834593  0.5007142598443366  0.3624314711304777
  0.3890065951515638  0.7779477354678619  0.3634966338229546
  0.3334786723231886  0.6669384542936001  0.3633914451490412
  0.3888871528069444  0.9444011532929650  0.3634714708949076
  0.3333576862249075  0.8334381276998286  0.3635283120261548
  0.5556338778654322  0.1110842222079214  0.3633648545579433
  0.5000718511560081  0.9999924785442644  0.3633665159873871
  0.5556471562267973  0.2776746009653550  0.3635012373868705
  0.5000592026999016  0.1666544723131125  0.3634500820721627
  0.5558528150847692  0.4445726724292172  0.3634286878255040
  0.5001691826555614  0.3332052875707845  0.3634286878255040
  0.5558915874759194  0.6112995809517514  0.3633683704861284
  0.5009705447399000  0.5004404520098689  0.3632517245657283
  0.5556554006231593  0.7778915580896992  0.3634633080644036
  0.5002053792934689  0.6669790477869810  0.3633585656441198
  0.5555962075750926  0.9445211274092884  0.3633662223232648
  0.5000270670117288  0.8333785918002192  0.3634562994255646
  0.7221540222248279  0.1110458972786148  0.3633514393921828
  0.6666862863752314  0.0000513650718759  0.3633539148315066
  0.7222215195738002  0.2777991783701950  0.3634722900547445
  0.6666287896760750  0.1666118839444550  0.3633575639467495
  0.7223446266027196  0.4444486506130687  0.3635302962638249
  0.6667850259896539  0.3333293093869329  0.3635302962638249
  0.7222936803867981  0.6111235676868887  0.3634500820721627
  0.6668616452614344  0.5001034390346462  0.3635012373868705
  0.7223103195584244  0.7778947528860911  0.3634956005525822
  0.6668059770345209  0.6667522961370054  0.3634616424707033
  0.7222793467082624  0.9444591245747986  0.3634711316561052
  0.6668000894739379  0.8333963524588128  0.3634996386295484
  0.8887282882522314  0.1110307210871326  0.3634896116808974
  0.8332462568391463  0.9998934440626499  0.3635288072143013
  0.8887826835559380  0.2777393925809406  0.3634580325667400
  0.8332966923061704  0.1666192643006212  0.3634457342545829
  0.8887898200894142  0.4443957930821441  0.3635022762249065
  0.8332830770072661  0.3333821669178576  0.3635022762249065
  0.8889058557316076  0.6111661560555461  0.3633575639467495
  0.8333114312036045  0.4999788616298062  0.3634722900547445
  0.8889683226117242  0.7777855614557367  0.3633665159873871
  0.8334387456575030  0.6666938177920798  0.3633648545579433
  0.8888084985250728  0.9443398923001709  0.3635283120261548
  0.8333750795139849  0.8333768667070345  0.3634714708949076
  0.2773912155965874  0.3888892100000021  0.4572268203295380
  0.2766970853134225  0.3888892100000021  0.5765860712011417
 
  0.00000000E+00  0.00000000E+00  0.00000000E+00
  0.00000000E+00  0.00000000E+00  0.00000000E+00
  0.00000000E+00  0.00000000E+00  0.00000000E+00
  0.00000000E+00  0.00000000E+00  0.00000000E+00
  0.00000000E+00  0.00000000E+00  0.00000000E+00
  0.00000000E+00  0.00000000E+00  0.00000000E+00
  0.00000000E+00  0.00000000E+00  0.00000000E+00
  0.00000000E+00  0.00000000E+00  0.00000000E+00
  0.00000000E+00  0.00000000E+00  0.00000000E+00
  0.00000000E+00  0.00000000E+00  0.00000000E+00
  0.00000000E+00  0.00000000E+00  0.00000000E+00
  0.00000000E+00  0.00000000E+00  0.00000000E+00
  0.00000000E+00  0.00000000E+00  0.00000000E+00
  0.00000000E+00  0.00000000E+00  0.00000000E+00
  0.00000000E+00  0.00000000E+00  0.00000000E+00
  0.00000000E+00  0.00000000E+00  0.00000000E+00
  0.00000000E+00  0.00000000E+00  0.00000000E+00
  0.00000000E+00  0.00000000E+00  0.00000000E+00
  0.00000000E+00  0.00000000E+00  0.00000000E+00
  0.00000000E+00  0.00000000E+00  0.00000000E+00
  0.00000000E+00  0.00000000E+00  0.00000000E+00
  0.00000000E+00  0.00000000E+00  0.00000000E+00
  0.00000000E+00  0.00000000E+00  0.00000000E+00
  0.00000000E+00  0.00000000E+00  0.00000000E+00
  0.00000000E+00  0.00000000E+00  0.00000000E+00
  0.00000000E+00  0.00000000E+00  0.00000000E+00
  0.00000000E+00  0.00000000E+00  0.00000000E+00
  0.00000000E+00  0.00000000E+00  0.00000000E+00
  0.00000000E+00  0.00000000E+00  0.00000000E+00
  0.00000000E+00  0.00000000E+00  0.00000000E+00
  0.00000000E+00  0.00000000E+00  0.00000000E+00
  0.00000000E+00  0.00000000E+00  0.00000000E+00
  0.00000000E+00  0.00000000E+00  0.00000000E+00
  0.00000000E+00  0.00000000E+00  0.00000000E+00
  0.00000000E+00  0.00000000E+00  0.00000000E+00
  0.00000000E+00  0.00000000E+00  0.00000000E+00
  0.00000000E+00  0.00000000E+00  0.00000000E+00
  0.00000000E+00  0.00000000E+00  0.00000000E+00
  0.00000000E+00  0.00000000E+00  0.00000000E+00
  0.00000000E+00  0.00000000E+00  0.00000000E+00
  0.00000000E+00  0.00000000E+00  0.00000000E+00
  0.00000000E+00  0.00000000E+00  0.00000000E+00
  0.00000000E+00  0.00000000E+00  0.00000000E+00
  0.00000000E+00  0.00000000E+00  0.00000000E+00
  0.00000000E+00  0.00000000E+00  0.00000000E+00
  0.00000000E+00  0.00000000E+00  0.00000000E+00
  0.00000000E+00  0.00000000E+00  0.00000000E+00
  0.00000000E+00  0.00000000E+00  0.00000000E+00
  0.00000000E+00  0.00000000E+00  0.00000000E+00
  0.00000000E+00  0.00000000E+00  0.00000000E+00
  0.00000000E+00  0.00000000E+00  0.00000000E+00
  0.00000000E+00  0.00000000E+00  0.00000000E+00
  0.00000000E+00  0.00000000E+00  0.00000000E+00
  0.00000000E+00  0.00000000E+00  0.00000000E+00
  0.00000000E+00  0.00000000E+00  0.00000000E+00
  0.00000000E+00  0.00000000E+00  0.00000000E+00
  0.00000000E+00  0.00000000E+00  0.00000000E+00
  0.00000000E+00  0.00000000E+00  0.00000000E+00
  0.00000000E+00  0.00000000E+00  0.00000000E+00
  0.00000000E+00  0.00000000E+00  0.00000000E+00
  0.00000000E+00  0.00000000E+00  0.00000000E+00
  0.00000000E+00  0.00000000E+00  0.00000000E+00
  0.00000000E+00  0.00000000E+00  0.00000000E+00
  0.00000000E+00  0.00000000E+00  0.00000000E+00
  0.00000000E+00  0.00000000E+00  0.00000000E+00
  0.00000000E+00  0.00000000E+00  0.00000000E+00
  0.00000000E+00  0.00000000E+00  0.00000000E+00
  0.00000000E+00  0.00000000E+00  0.00000000E+00
  0.00000000E+00  0.00000000E+00  0.00000000E+00
  0.00000000E+00  0.00000000E+00  0.00000000E+00
  0.00000000E+00  0.00000000E+00  0.00000000E+00
  0.00000000E+00  0.00000000E+00  0.00000000E+00
  0.00000000E+00  0.00000000E+00  0.00000000E+00
  0.00000000E+00  0.00000000E+00  0.00000000E+00
