C4                                      
   1.00000000000000     
    14.8063199999999995    0.0000000000000000    0.0000000000000000
    -7.4031599999999997   12.8226492600000004    0.0000000000000000
     0.0000000000000000    0.0000000000000000   18.0000000000000000
   C    Ni
    72     4
Direct
  0.0551803079111934  0.1108470409221454  0.3655036180644515
  0.0000413764105716  0.0001211341901737  0.3633842231496303
  0.0538905534612937  0.2769890522327785  0.3671735818552051
  0.9993305166252995  0.1661769474591210  0.3655270391402325
  0.0549199149816602  0.4447294471154635  0.3626789947532458
  0.9992128650354388  0.3331785346066027  0.3636585453935908
  0.0554170713489484  0.6114650989080062  0.3609189576557057
  0.9996937212307060  0.5003203599855937  0.3609039142000299
  0.0556554386237025  0.7780962212327864  0.3609624521848502
  0.0000626447933811  0.6670545176475500  0.3603584526026253
  0.0556815346843038  0.9446242674254108  0.3626301611877381
  0.0002125278187393  0.8336963927471359  0.3612775161855097
  0.2224208123617402  0.1108525350393847  0.3654182298518975
  0.1668299406444262  0.0001211999960518  0.3633143330633146
  0.2215038317262312  0.2762569953851326  0.3709339355756001
  0.1664312135339685  0.1661130532568720  0.3673223196090873
  0.2209419879722816  0.4447877816861805  0.3711223470168719
  0.1653559454523545  0.3322857790610811  0.3717805853641423
  0.2218054732602326  0.6118180295106512  0.3647601633547097
  0.1655245688265836  0.5007137383132658  0.3651507902582125
  0.2222559504764163  0.7782411735972730  0.3624669554740905
  0.1664492393571209  0.6671745110310496  0.3623565163354172
  0.2224108202621409  0.9446168159003179  0.3624608889406389
  0.1667249846852101  0.8336527368369104  0.3617544287981787
  0.3892152923258223  0.1109447407428021  0.3632383117460236
  0.3334582135952644  0.0000183905217526  0.3626000288701263
  0.3898254211857548  0.2769976277874235  0.3670600698031734
  0.3336006419239439  0.1661891293753541  0.3654056588107224
  0.3905440829941540  0.4447722203444755  0.3711663808181882
  0.3336484070802612  0.3322793319139095  0.3716989204552306
  0.3898692431253963  0.6129793520992379  0.3710803179414057
  0.3340031353799660  0.5012741637098941  0.3722982241536315
  0.3889570699114770  0.7784729873662357  0.3655417164213830
  0.3329697244380867  0.6679052976632107  0.3677902538809761
  0.3890560800354734  0.9446687307655353  0.3626217576221364
  0.3333288333482898  0.8338026926870441  0.3634368809575648
  0.5557043792419378  0.1110742379292873  0.3617248320652351
  0.5001133506039963  0.0001106175904440  0.3624513465516870
  0.5559391448321449  0.2777149030993940  0.3618652825298483
  0.5002255344666509  0.1665826089765332  0.3622441354712578
  0.5564992142885217  0.4447347251376996  0.3626778501448484
  0.5006705544056089  0.3331791215918685  0.3636119683343395
  0.5567492449124458  0.6118101612685791  0.3647820977353575
  0.5018890975317731  0.5007115655317946  0.3651876787833856
  0.5562655719676144  0.7784654082188283  0.3655294377272114
  0.5016968531301558  0.6679128652933954  0.3677804681534909
  0.5556389248135147  0.9445263107644593  0.3630956146163129
  0.5002458485039227  0.8337528087365911  0.3649143734104854
  0.7221228410958602  0.1110733457976849  0.3617715545806703
  0.6667539635894002  0.0001083139713458  0.3624880488094746
  0.7222677500461572  0.2777864604418170  0.3605158676039864
  0.6667099797966500  0.1666712659609360  0.3612022782176254
  0.7225446312053450  0.4445830965926305  0.3602015600167334
  0.6669695623649403  0.3334409188441185  0.3605668799569060
  0.7227705970499301  0.6114602949873671  0.3609588776893347
  0.6673248088619630  0.5003216554913621  0.3608903117501399
  0.7227401478281834  0.7782354321087936  0.3624601443748006
  0.6674614353943582  0.6671699882525246  0.3623843370340936
  0.7223787347819979  0.9446656476108899  0.3626441583815776
  0.6672342630626815  0.8337941264810453  0.3634277958528926
  0.8884764456274823  0.1109415508437124  0.3633402209224741
  0.8333267744711321  0.0000137292167253  0.3626593092045027
  0.8884996551572044  0.2777144871928456  0.3619010671243785
  0.8331057069636287  0.1665834042118277  0.3623173825444965
  0.8887439557204218  0.4445697176134686  0.3602119175517160
  0.8332051067261617  0.3334417113202335  0.3605686463812461
  0.8890613914619792  0.6113973177895105  0.3599854521320154
  0.8334907542503558  0.5002639641247342  0.3598772738800449
  0.8891700460866971  0.7780971988435965  0.3609910042384357
  0.8337191780734514  0.6670541973645143  0.3603953132143829
  0.8889683532272414  0.9446118302169495  0.3625077545930182
  0.8336812656883197  0.8336549895675915  0.3617505820719700
  0.2010149786835953  0.3927457051194452  0.4802533702898302
  0.3051039711563917  0.4446600280976440  0.5839571238036072
  0.3585219102941366  0.5515772386236790  0.4795327651574439
  0.3568236658083421  0.3924051701102940  0.4801861656031789
 
  0.00000000E+00  0.00000000E+00  0.00000000E+00
  0.00000000E+00  0.00000000E+00  0.00000000E+00
  0.00000000E+00  0.00000000E+00  0.00000000E+00
  0.00000000E+00  0.00000000E+00  0.00000000E+00
  0.00000000E+00  0.00000000E+00  0.00000000E+00
  0.00000000E+00  0.00000000E+00  0.00000000E+00
  0.00000000E+00  0.00000000E+00  0.00000000E+00
  0.00000000E+00  0.00000000E+00  0.00000000E+00
  0.00000000E+00  0.00000000E+00  0.00000000E+00
  0.00000000E+00  0.00000000E+00  0.00000000E+00
  0.00000000E+00  0.00000000E+00  0.00000000E+00
  0.00000000E+00  0.00000000E+00  0.00000000E+00
  0.00000000E+00  0.00000000E+00  0.00000000E+00
  0.00000000E+00  0.00000000E+00  0.00000000E+00
  0.00000000E+00  0.00000000E+00  0.00000000E+00
  0.00000000E+00  0.00000000E+00  0.00000000E+00
  0.00000000E+00  0.00000000E+00  0.00000000E+00
  0.00000000E+00  0.00000000E+00  0.00000000E+00
  0.00000000E+00  0.00000000E+00  0.00000000E+00
  0.00000000E+00  0.00000000E+00  0.00000000E+00
  0.00000000E+00  0.00000000E+00  0.00000000E+00
  0.00000000E+00  0.00000000E+00  0.00000000E+00
  0.00000000E+00  0.00000000E+00  0.00000000E+00
  0.00000000E+00  0.00000000E+00  0.00000000E+00
  0.00000000E+00  0.00000000E+00  0.00000000E+00
  0.00000000E+00  0.00000000E+00  0.00000000E+00
  0.00000000E+00  0.00000000E+00  0.00000000E+00
  0.00000000E+00  0.00000000E+00  0.00000000E+00
  0.00000000E+00  0.00000000E+00  0.00000000E+00
  0.00000000E+00  0.00000000E+00  0.00000000E+00
  0.00000000E+00  0.00000000E+00  0.00000000E+00
  0.00000000E+00  0.00000000E+00  0.00000000E+00
  0.00000000E+00  0.00000000E+00  0.00000000E+00
  0.00000000E+00  0.00000000E+00  0.00000000E+00
  0.00000000E+00  0.00000000E+00  0.00000000E+00
  0.00000000E+00  0.00000000E+00  0.00000000E+00
  0.00000000E+00  0.00000000E+00  0.00000000E+00
  0.00000000E+00  0.00000000E+00  0.00000000E+00
  0.00000000E+00  0.00000000E+00  0.00000000E+00
  0.00000000E+00  0.00000000E+00  0.00000000E+00
  0.00000000E+00  0.00000000E+00  0.00000000E+00
  0.00000000E+00  0.00000000E+00  0.00000000E+00
  0.00000000E+00  0.00000000E+00  0.00000000E+00
  0.00000000E+00  0.00000000E+00  0.00000000E+00
  0.00000000E+00  0.00000000E+00  0.00000000E+00
  0.00000000E+00  0.00000000E+00  0.00000000E+00
  0.00000000E+00  0.00000000E+00  0.00000000E+00
  0.00000000E+00  0.00000000E+00  0.00000000E+00
  0.00000000E+00  0.00000000E+00  0.00000000E+00
  0.00000000E+00  0.00000000E+00  0.00000000E+00
  0.00000000E+00  0.00000000E+00  0.00000000E+00
  0.00000000E+00  0.00000000E+00  0.00000000E+00
  0.00000000E+00  0.00000000E+00  0.00000000E+00
  0.00000000E+00  0.00000000E+00  0.00000000E+00
  0.00000000E+00  0.00000000E+00  0.00000000E+00
  0.00000000E+00  0.00000000E+00  0.00000000E+00
  0.00000000E+00  0.00000000E+00  0.00000000E+00
  0.00000000E+00  0.00000000E+00  0.00000000E+00
  0.00000000E+00  0.00000000E+00  0.00000000E+00
  0.00000000E+00  0.00000000E+00  0.00000000E+00
  0.00000000E+00  0.00000000E+00  0.00000000E+00
  0.00000000E+00  0.00000000E+00  0.00000000E+00
  0.00000000E+00  0.00000000E+00  0.00000000E+00
  0.00000000E+00  0.00000000E+00  0.00000000E+00
  0.00000000E+00  0.00000000E+00  0.00000000E+00
  0.00000000E+00  0.00000000E+00  0.00000000E+00
  0.00000000E+00  0.00000000E+00  0.00000000E+00
  0.00000000E+00  0.00000000E+00  0.00000000E+00
  0.00000000E+00  0.00000000E+00  0.00000000E+00
  0.00000000E+00  0.00000000E+00  0.00000000E+00
  0.00000000E+00  0.00000000E+00  0.00000000E+00
  0.00000000E+00  0.00000000E+00  0.00000000E+00
  0.00000000E+00  0.00000000E+00  0.00000000E+00
  0.00000000E+00  0.00000000E+00  0.00000000E+00
  0.00000000E+00  0.00000000E+00  0.00000000E+00
  0.00000000E+00  0.00000000E+00  0.00000000E+00
