POSCAR                                  
   1.00000000000000     
    20.0000000000000000    0.0000000000000000    0.0000000000000000
     0.0000000000000000   20.0000000000000000    0.0000000000000000
     0.0000000000000000    0.0000000000000000   20.0000000000000000
   Ag   Au
     2     1
Direct
  0.4127693974860449  0.4440351501996744  0.4765571914884461
  0.4634247647750271  0.5652939444878271  0.4817061784412999
  0.5474642377389216  0.4590089553124912  0.4737317800702527
 
  0.00000000E+00  0.00000000E+00  0.00000000E+00
  0.00000000E+00  0.00000000E+00  0.00000000E+00
  0.00000000E+00  0.00000000E+00  0.00000000E+00
