C4                                      
   1.00000000000000     
    14.8063199999999995    0.0000000000000000    0.0000000000000000
    -7.4031599999999997   12.8226492600000004    0.0000000000000000
     0.0000000000000000    0.0000000000000000   17.0000000000000000
   C    Pd
    72     3
Direct
  0.0552576622648502  0.1106283867857059  0.3838411134846424
  0.9997983294754960  0.9995911294041235  0.3836817542133346
  0.0553772112108959  0.2774129943009171  0.3847930239116337
  0.9997791540241181  0.1662567170174825  0.3840097989393882
  0.0552379258749554  0.4440431120017436  0.3855401296974321
  0.9997724230354521  0.3329664139439075  0.3850174793512195
  0.0553573051856304  0.6107362070039599  0.3851440173320739
  0.9997777291831937  0.4996458051338593  0.3852042752009410
  0.0553635408122233  0.7773835580233381  0.3844057687845108
  0.9998150394650338  0.6662808166154974  0.3848398680696974
  0.0553447861666285  0.9440177871541380  0.3838398350098444
  0.9998044817408243  0.8329315783796858  0.3841618895791754
  0.2219599312912095  0.1105767895720575  0.3840294057156015
  0.1664393986565642  0.9995382416980831  0.3838472338964323
  0.2217181938067085  0.2769666771403507  0.3851938073386165
  0.1663248396040871  0.1660663779563620  0.3841593301194237
  0.2214385564942560  0.4438677693094988  0.3875741375299668
  0.1662764083113331  0.3328381483634146  0.3857469439130341
  0.2220360859213173  0.6108099367022106  0.3859985147215781
  0.1663088733011335  0.4996042564942513  0.3864683313385200
  0.2220614460427868  0.7774308267281498  0.3845348243381608
  0.1665114908590937  0.6662915849799518  0.3852272670383172
  0.2220120882784897  0.9440205245521724  0.3838784442593806
  0.1664663107726909  0.8329263783481906  0.3842051784033629
  0.3887050652813429  0.1106258295214175  0.3838860060280211
  0.3331299968816808  0.9995914703212563  0.3837387705304280
  0.3885887674684980  0.2769714340027178  0.3852153418422546
  0.3330731089489873  0.1660568890692460  0.3841914691013031
  0.3884176017812564  0.4434464369723443  0.3905915816186436
  0.3325052087517051  0.3316630400336464  0.3868296568766212
  0.3889716513097028  0.6114996388187990  0.3868050742225577
  0.3328076806028974  0.5000622012672338  0.3899221174108973
  0.3888309892181141  0.7776802250773045  0.3843298623565090
  0.3332362593658189  0.6665894348893104  0.3856204749978716
  0.3887449508014384  0.9441364580293410  0.3836773965583831
  0.3331784075982327  0.8330614026320262  0.3841219881157585
  0.5554009181428157  0.1108141210394891  0.3836996092879801
  0.4998332547124491  0.9997175358398707  0.3834844087727305
  0.5553715917639579  0.2774180133773783  0.3847986768647118
  0.4998157552546800  0.1662582075941401  0.3840475773271734
  0.5557561733792653  0.4438870570802251  0.3874367358186177
  0.4998952347576022  0.3328447496608504  0.3857314381334618
  0.5558608474260396  0.6114707921251679  0.3866535557004696
  0.5006141792118299  0.5000630956810213  0.3896673892411258
  0.5555164732153841  0.7776924235616320  0.3836386673152745
  0.5001847820174632  0.6670259479199885  0.3849949011833971
  0.5554385989514543  0.9442251934016639  0.3833243981029710
  0.4998910252871269  0.8332314179067382  0.3836296690444243
  0.7220761686098953  0.1108168472722824  0.3834840593279836
  0.6665557817255205  0.9997764237333158  0.3832100280209048
  0.7220494906980832  0.2774184475699002  0.3844432993219655
  0.6665197623958505  0.1663425493581911  0.3838219516714716
  0.7221424976732180  0.4440507545640600  0.3854737572171913
  0.6665261471990789  0.3329654523595451  0.3849970529687212
  0.7221196981354296  0.6108101873060932  0.3858482993314922
  0.6666435275708196  0.4996143284196819  0.3863346905174936
  0.7221845720944629  0.7776732034806457  0.3842215249768088
  0.6666916350790615  0.6665838862931110  0.3854625113335857
  0.7221215273932415  0.9442254934119561  0.3832830726843639
  0.6666748332215207  0.8332271774957931  0.3835703882371817
  0.8887450192531006  0.1108097454425376  0.3836569158856520
  0.8332202591472964  0.9997190529744486  0.3834262889993738
  0.8887001862247672  0.2774191701156070  0.3844388633782714
  0.8331538381666164  0.1663402029231733  0.3837984382365249
  0.8887078903067049  0.4440759962948420  0.3849569824673083
  0.8331589356638673  0.3329798905919432  0.3846290667979133
  0.8887196329069837  0.6107355766745215  0.3850991809574111
  0.8332093913627503  0.4996506605573217  0.3851677754537803
  0.8887123943272357  0.7774339689983805  0.3844511385083607
  0.8331293159204165  0.6662951955334577  0.3851312797917856
  0.8887325233216927  0.9441356129359662  0.3836058431424973
  0.8332248123747661  0.8330599034325203  0.3840284185292830
  0.3005230070415692  0.4412974866367136  0.6442058083715594
  0.4662650801719437  0.4427247003583901  0.6469463887130047
  0.4028245081053683  0.4755092918337311  0.5152792865202898

