C4                                      
   1.00000000000000     
    14.8063199999999995    0.0000000000000000    0.0000000000000000
    -7.4031599999999997   12.8226492600000004    0.0000000000000000
     0.0000000000000000    0.0000000000000000   18.0000000000000000
   C    Ag   Au
    72     3     1
Direct
  0.0556589304109991  0.1112027199706063  0.3617754333724577
  0.0000833615465581  0.0001116028154300  0.3624389807529909
  0.0555695143941080  0.2777951989095513  0.3622244957054050
  0.0000574830904512  0.1667147541714940  0.3623641487878473
  0.0556030893664712  0.4445353461323052  0.3631420700201460
  0.0000462574739473  0.3334028743473070  0.3630508587045114
  0.0556120578245753  0.6112035659754440  0.3635381340831501
  0.0000498107320794  0.5000930559480921  0.3636010770072033
  0.0556047033882052  0.7778762067764120  0.3632680285096086
  0.0000520985430441  0.6667708570860853  0.3635552121639734
  0.0556246580938691  0.9445743135108557  0.3624745024828897
  0.0000598643029974  0.8334649217465611  0.3630600719819910
  0.2222470608903180  0.1111609217806375  0.3608486676653229
  0.1667270859431085  0.0001208318862211  0.3619021445269013
  0.2222711240344637  0.2777766119811034  0.3597254782045525
  0.1667072316244642  0.1667153201509777  0.3606010487586531
  0.2223034587885167  0.4445492812598033  0.3611190078467459
  0.1667136456419485  0.3333297566055720  0.3609945744977452
  0.2222694147383066  0.6111985412146197  0.3627025422155796
  0.1667237231209953  0.5001171580372770  0.3624407446983184
  0.2222625041905104  0.7778816343215169  0.3631842489271833
  0.1667135989574078  0.6667670358115672  0.3632516574720270
  0.2222828554169851  0.9445743135108557  0.3624745024828897
  0.1667383874435444  0.8334649217465611  0.3630600719819910
  0.3888769895596056  0.1112027199706063  0.3617754333724577
  0.3333615712688740  0.0001116028154300  0.3624389807529909
  0.3888386879466452  0.2777766119811034  0.3597254782045525
  0.3333414285265164  0.1667153201509777  0.3606010487586531
  0.3889057610517312  0.4444783221034712  0.3588913770471436
  0.3333535913566763  0.3333738427133426  0.3588073504124125
  0.3889006157142845  0.6111725952436231  0.3611610680095083
  0.3334160118593843  0.5000853445619526  0.3599708419531140
  0.3889320803878604  0.7778521000551422  0.3628788928133204
  0.3333798884234227  0.6667385350410626  0.3622890087716968
  0.3889111449655971  0.9445398987023808  0.3629421528467915
  0.3333848275837923  0.8334376415977971  0.3630826252243864
  0.5555799086185544  0.1111856980068708  0.3630677429933584
  0.5000299839202356  0.0000835983955625  0.3631299306901781
  0.5555588745154409  0.2777951989095513  0.3622244957054050
  0.4999906010810378  0.1667147541714940  0.3623641487878473
  0.5555790224712922  0.4445492812598033  0.3611190078467459
  0.4999494409636256  0.3333297566055720  0.3609945744977452
  0.5556051795293442  0.6111725952436231  0.3611610680095083
  0.5000026627025633  0.5000853445619526  0.3599708419531140
  0.5556035614528980  0.7778739229058047  0.3625769157802452
  0.5000471345183968  0.6667609290367835  0.3615844483946091
  0.5555786083226266  0.9445322656235220  0.3632704594511651
  0.5000311086308358  0.8334165484369649  0.3629533770482922
  0.7222575747941136  0.1111819495882216  0.3634995718432066
  0.6667087377359309  0.0000841354718659  0.3633795422716588
  0.7222495991790723  0.2778544043649447  0.3634948740015673
  0.6666884759988037  0.1667407115489397  0.3634196062837702
  0.7222654567658253  0.4445353461323052  0.3631420700201460
  0.6666899468733618  0.3334028743473070  0.3630508587045114
  0.7222623164763107  0.6111985412146197  0.3627025422155796
  0.6667267649162767  0.5001171580372770  0.3624407446983184
  0.7222532196672802  0.7778521000551422  0.3628788928133204
  0.6666919766176349  0.6667385350410626  0.3622890087716968
  0.7222868573008867  0.9445322656235220  0.3632704594511651
  0.6667187698061312  0.8334165484369649  0.3629533770482922
  0.8889389893883148  0.1111856980068708  0.3630677429933584
  0.8333869444753290  0.0000835983955625  0.3631299306901781
  0.8889380051858780  0.2778544043649447  0.3634948740015673
  0.8333855755501318  0.1667407115489397  0.3634196062837702
  0.8889252533555592  0.4445173067111199  0.3637081568948588
  0.8333799081405218  0.3334264762810477  0.3636751488558900
  0.8889247081508742  0.6112035659754440  0.3635381340831501
  0.8333765752160005  0.5000930559480921  0.3636010770072033
  0.8889523301310049  0.7778816343215169  0.3631842489271833
  0.8333867668541615  0.6667670358115672  0.3632516574720270
  0.8889619437367742  0.9445398987023808  0.3629421528467915
  0.8333861440140069  0.8334376415977971  0.3630826252243864
  0.2729192195515182  0.3914378350566281  0.5463541571767578
  0.4548935835886212  0.5764538371772474  0.5488747939268066
  0.4518519555051057  0.3914378350566281  0.5463541571767578
  0.2703075856954484  0.2072818413908948  0.5506146161407273
 
  0.00000000E+00  0.00000000E+00  0.00000000E+00
  0.00000000E+00  0.00000000E+00  0.00000000E+00
  0.00000000E+00  0.00000000E+00  0.00000000E+00
  0.00000000E+00  0.00000000E+00  0.00000000E+00
  0.00000000E+00  0.00000000E+00  0.00000000E+00
  0.00000000E+00  0.00000000E+00  0.00000000E+00
  0.00000000E+00  0.00000000E+00  0.00000000E+00
  0.00000000E+00  0.00000000E+00  0.00000000E+00
  0.00000000E+00  0.00000000E+00  0.00000000E+00
  0.00000000E+00  0.00000000E+00  0.00000000E+00
  0.00000000E+00  0.00000000E+00  0.00000000E+00
  0.00000000E+00  0.00000000E+00  0.00000000E+00
  0.00000000E+00  0.00000000E+00  0.00000000E+00
  0.00000000E+00  0.00000000E+00  0.00000000E+00
  0.00000000E+00  0.00000000E+00  0.00000000E+00
  0.00000000E+00  0.00000000E+00  0.00000000E+00
  0.00000000E+00  0.00000000E+00  0.00000000E+00
  0.00000000E+00  0.00000000E+00  0.00000000E+00
  0.00000000E+00  0.00000000E+00  0.00000000E+00
  0.00000000E+00  0.00000000E+00  0.00000000E+00
  0.00000000E+00  0.00000000E+00  0.00000000E+00
  0.00000000E+00  0.00000000E+00  0.00000000E+00
  0.00000000E+00  0.00000000E+00  0.00000000E+00
  0.00000000E+00  0.00000000E+00  0.00000000E+00
  0.00000000E+00  0.00000000E+00  0.00000000E+00
  0.00000000E+00  0.00000000E+00  0.00000000E+00
  0.00000000E+00  0.00000000E+00  0.00000000E+00
  0.00000000E+00  0.00000000E+00  0.00000000E+00
  0.00000000E+00  0.00000000E+00  0.00000000E+00
  0.00000000E+00  0.00000000E+00  0.00000000E+00
  0.00000000E+00  0.00000000E+00  0.00000000E+00
  0.00000000E+00  0.00000000E+00  0.00000000E+00
  0.00000000E+00  0.00000000E+00  0.00000000E+00
  0.00000000E+00  0.00000000E+00  0.00000000E+00
  0.00000000E+00  0.00000000E+00  0.00000000E+00
  0.00000000E+00  0.00000000E+00  0.00000000E+00
  0.00000000E+00  0.00000000E+00  0.00000000E+00
  0.00000000E+00  0.00000000E+00  0.00000000E+00
  0.00000000E+00  0.00000000E+00  0.00000000E+00
  0.00000000E+00  0.00000000E+00  0.00000000E+00
  0.00000000E+00  0.00000000E+00  0.00000000E+00
  0.00000000E+00  0.00000000E+00  0.00000000E+00
  0.00000000E+00  0.00000000E+00  0.00000000E+00
  0.00000000E+00  0.00000000E+00  0.00000000E+00
  0.00000000E+00  0.00000000E+00  0.00000000E+00
  0.00000000E+00  0.00000000E+00  0.00000000E+00
  0.00000000E+00  0.00000000E+00  0.00000000E+00
  0.00000000E+00  0.00000000E+00  0.00000000E+00
  0.00000000E+00  0.00000000E+00  0.00000000E+00
  0.00000000E+00  0.00000000E+00  0.00000000E+00
  0.00000000E+00  0.00000000E+00  0.00000000E+00
  0.00000000E+00  0.00000000E+00  0.00000000E+00
  0.00000000E+00  0.00000000E+00  0.00000000E+00
  0.00000000E+00  0.00000000E+00  0.00000000E+00
  0.00000000E+00  0.00000000E+00  0.00000000E+00
  0.00000000E+00  0.00000000E+00  0.00000000E+00
  0.00000000E+00  0.00000000E+00  0.00000000E+00
  0.00000000E+00  0.00000000E+00  0.00000000E+00
  0.00000000E+00  0.00000000E+00  0.00000000E+00
  0.00000000E+00  0.00000000E+00  0.00000000E+00
  0.00000000E+00  0.00000000E+00  0.00000000E+00
  0.00000000E+00  0.00000000E+00  0.00000000E+00
  0.00000000E+00  0.00000000E+00  0.00000000E+00
  0.00000000E+00  0.00000000E+00  0.00000000E+00
  0.00000000E+00  0.00000000E+00  0.00000000E+00
  0.00000000E+00  0.00000000E+00  0.00000000E+00
  0.00000000E+00  0.00000000E+00  0.00000000E+00
  0.00000000E+00  0.00000000E+00  0.00000000E+00
  0.00000000E+00  0.00000000E+00  0.00000000E+00
  0.00000000E+00  0.00000000E+00  0.00000000E+00
  0.00000000E+00  0.00000000E+00  0.00000000E+00
  0.00000000E+00  0.00000000E+00  0.00000000E+00
  0.00000000E+00  0.00000000E+00  0.00000000E+00
  0.00000000E+00  0.00000000E+00  0.00000000E+00
  0.00000000E+00  0.00000000E+00  0.00000000E+00
  0.00000000E+00  0.00000000E+00  0.00000000E+00
