C4                                      
   1.00000000000000     
    14.8063199999999995    0.0000000000000000    0.0000000000000000
    -7.4031599999999997   12.8226492600000004    0.0000000000000000
     0.0000000000000000    0.0000000000000000   18.0000000000000000
   C    Pd   Au
    72     1     3
Direct
  0.0554871221267845  0.1110717223737083  0.3616908822944183
  0.9999659484916918  0.9999754172959072  0.3616955097949059
  0.0554916173891939  0.2777697174568132  0.3612599309099238
  0.9999378202392819  0.1666496519513956  0.3614183159239985
  0.0555708070072285  0.4444750740144698  0.3611728198865265
  0.0000177870089217  0.3333689140178535  0.3611556895341153
  0.0556516329273578  0.6111886103867974  0.3614813175481615
  0.0000952515116452  0.5000705913192007  0.3612853697816121
  0.0556259059544146  0.7778748941560920  0.3617546005816976
  0.0000980252375413  0.6667691490402703  0.3617649975643218
  0.0555302664017887  0.9444710625487289  0.3617320369335957
  0.0000695073655379  0.8333875314738535  0.3617614009605248
  0.2219724153407086  0.1109859227419463  0.3625098520572294
  0.1665779983105864  0.9999710571462472  0.3620368979309490
  0.2220715231776111  0.2777681756104613  0.3619202389351486
  0.1664974953887182  0.1665659987862753  0.3621000662007390
  0.2220577018639247  0.4444479213692816  0.3613998198711244
  0.1665341328829371  0.3333930569437626  0.3613771680264932
  0.2222035074594402  0.6111886103867974  0.3614813175481615
  0.1666419998075526  0.5000705913192007  0.3612853697816121
  0.2222789548694308  0.7778913697388745  0.3617698124346020
  0.1667064759188648  0.6667462918377396  0.3615177577539583
  0.2222357307167826  0.9445124281368535  0.3621729130744882
  0.1667576448727672  0.8334502609041792  0.3618489714278184
  0.3888931497269894  0.1111197594539775  0.3633602006694758
  0.3334050959007016  0.0001435318013989  0.3625395657633632
  0.3878254857139041  0.2772422763791909  0.3657097779907730
  0.3330002570026451  0.1664594076382429  0.3637312572708211
  0.3884857640270098  0.4445995938922849  0.3632567156410218
  0.3328153178821296  0.3332418154623866  0.3631789773267613
  0.3888583886103731  0.6112755548119466  0.3622118215807717
  0.3332235781063986  0.5000640492666975  0.3619918668270046
  0.3889155182016850  0.7778748941560920  0.3617546005816976
  0.3333377938027340  0.6667691490402703  0.3617649975643218
  0.3889432274200715  0.9445124281368535  0.3621729130744882
  0.3333592760314090  0.8334502609041792  0.3618489714278184
  0.5556800374012312  0.1109859227419463  0.3625098520572294
  0.5000597288356659  0.9999710571462472  0.3620368979309490
  0.5560833206652873  0.2772422763791909  0.3657097779907730
  0.5001258206355956  0.1664594076382429  0.3637312572708211
  0.5559584658749444  0.4452503917498944  0.3696778740829316
  0.4996497456547004  0.3326328313094109  0.3697258907803871
  0.5554948778290481  0.6114225609969566  0.3638884727599887
  0.4995205562022562  0.5006328514219121  0.3658499937540967
  0.5555347344624053  0.7778834649524029  0.3621174752345695
  0.4999211223065672  0.6668653305753551  0.3626356448724977
  0.5556073261469407  0.9444710625487289  0.3617320369335957
  0.4999846941083064  0.8333875314738535  0.3617614009605248
  0.7222511302469172  0.1110717223737083  0.3616908822944183
  0.6666761388042062  0.9999754172959072  0.3616955097949059
  0.7223631824328578  0.2777681756104613  0.3619202389351486
  0.6667351733975480  0.1665659987862753  0.3621000662007390
  0.7227803598652756  0.4445995938922849  0.3632567156410218
  0.6670931675802620  0.3332418154623866  0.3631789773267613
  0.7225942131679091  0.6114225609969566  0.3638884727599887
  0.6677789552196529  0.5006328514219121  0.3658499937540967
  0.7221914225414352  0.7777163050828761  0.3625674378911796
  0.6667042622010229  0.6667418644020486  0.3634327852123391
  0.7222342991755042  0.9444059819501334  0.3617926077731042
  0.6666563127610416  0.8333441506704347  0.3621917087193012
  0.8888814748250624  0.1110964096501306  0.3614651175408454
  0.8333130497029160  0.9999594394058278  0.3617053683079945
  0.8889446300676198  0.2777697174568132  0.3612599309099238
  0.8333785017121116  0.1666496519513956  0.3614183159239985
  0.8890567495053574  0.4444479213692816  0.3613998198711244
  0.8335255940608306  0.3333930569437626  0.3613771680264932
  0.8890836962015811  0.6112755548119466  0.3622118215807717
  0.8335071411602968  0.5000640492666975  0.3619918668270046
  0.8890152604900052  0.7778834649524029  0.3621174752345695
  0.8336108782688001  0.6668653305753551  0.3626356448724977
  0.8888382127746226  0.9444059819501334  0.3617926077731042
  0.8333544979093901  0.8333441506704347  0.3621917087193012
  0.5284784447269217  0.3902902194538456  0.4858246940600495
  0.6168902638346623  0.5671138576693195  0.5670247320672175
  0.5265134834513603  0.3863602969027156  0.6349193094769703
  0.4379023790951067  0.2091380881902225  0.5623932754022292
 
  0.00000000E+00  0.00000000E+00  0.00000000E+00
  0.00000000E+00  0.00000000E+00  0.00000000E+00
  0.00000000E+00  0.00000000E+00  0.00000000E+00
  0.00000000E+00  0.00000000E+00  0.00000000E+00
  0.00000000E+00  0.00000000E+00  0.00000000E+00
  0.00000000E+00  0.00000000E+00  0.00000000E+00
  0.00000000E+00  0.00000000E+00  0.00000000E+00
  0.00000000E+00  0.00000000E+00  0.00000000E+00
  0.00000000E+00  0.00000000E+00  0.00000000E+00
  0.00000000E+00  0.00000000E+00  0.00000000E+00
  0.00000000E+00  0.00000000E+00  0.00000000E+00
  0.00000000E+00  0.00000000E+00  0.00000000E+00
  0.00000000E+00  0.00000000E+00  0.00000000E+00
  0.00000000E+00  0.00000000E+00  0.00000000E+00
  0.00000000E+00  0.00000000E+00  0.00000000E+00
  0.00000000E+00  0.00000000E+00  0.00000000E+00
  0.00000000E+00  0.00000000E+00  0.00000000E+00
  0.00000000E+00  0.00000000E+00  0.00000000E+00
  0.00000000E+00  0.00000000E+00  0.00000000E+00
  0.00000000E+00  0.00000000E+00  0.00000000E+00
  0.00000000E+00  0.00000000E+00  0.00000000E+00
  0.00000000E+00  0.00000000E+00  0.00000000E+00
  0.00000000E+00  0.00000000E+00  0.00000000E+00
  0.00000000E+00  0.00000000E+00  0.00000000E+00
  0.00000000E+00  0.00000000E+00  0.00000000E+00
  0.00000000E+00  0.00000000E+00  0.00000000E+00
  0.00000000E+00  0.00000000E+00  0.00000000E+00
  0.00000000E+00  0.00000000E+00  0.00000000E+00
  0.00000000E+00  0.00000000E+00  0.00000000E+00
  0.00000000E+00  0.00000000E+00  0.00000000E+00
  0.00000000E+00  0.00000000E+00  0.00000000E+00
  0.00000000E+00  0.00000000E+00  0.00000000E+00
  0.00000000E+00  0.00000000E+00  0.00000000E+00
  0.00000000E+00  0.00000000E+00  0.00000000E+00
  0.00000000E+00  0.00000000E+00  0.00000000E+00
  0.00000000E+00  0.00000000E+00  0.00000000E+00
  0.00000000E+00  0.00000000E+00  0.00000000E+00
  0.00000000E+00  0.00000000E+00  0.00000000E+00
  0.00000000E+00  0.00000000E+00  0.00000000E+00
  0.00000000E+00  0.00000000E+00  0.00000000E+00
  0.00000000E+00  0.00000000E+00  0.00000000E+00
  0.00000000E+00  0.00000000E+00  0.00000000E+00
  0.00000000E+00  0.00000000E+00  0.00000000E+00
  0.00000000E+00  0.00000000E+00  0.00000000E+00
  0.00000000E+00  0.00000000E+00  0.00000000E+00
  0.00000000E+00  0.00000000E+00  0.00000000E+00
  0.00000000E+00  0.00000000E+00  0.00000000E+00
  0.00000000E+00  0.00000000E+00  0.00000000E+00
  0.00000000E+00  0.00000000E+00  0.00000000E+00
  0.00000000E+00  0.00000000E+00  0.00000000E+00
  0.00000000E+00  0.00000000E+00  0.00000000E+00
  0.00000000E+00  0.00000000E+00  0.00000000E+00
  0.00000000E+00  0.00000000E+00  0.00000000E+00
  0.00000000E+00  0.00000000E+00  0.00000000E+00
  0.00000000E+00  0.00000000E+00  0.00000000E+00
  0.00000000E+00  0.00000000E+00  0.00000000E+00
  0.00000000E+00  0.00000000E+00  0.00000000E+00
  0.00000000E+00  0.00000000E+00  0.00000000E+00
  0.00000000E+00  0.00000000E+00  0.00000000E+00
  0.00000000E+00  0.00000000E+00  0.00000000E+00
  0.00000000E+00  0.00000000E+00  0.00000000E+00
  0.00000000E+00  0.00000000E+00  0.00000000E+00
  0.00000000E+00  0.00000000E+00  0.00000000E+00
  0.00000000E+00  0.00000000E+00  0.00000000E+00
  0.00000000E+00  0.00000000E+00  0.00000000E+00
  0.00000000E+00  0.00000000E+00  0.00000000E+00
  0.00000000E+00  0.00000000E+00  0.00000000E+00
  0.00000000E+00  0.00000000E+00  0.00000000E+00
  0.00000000E+00  0.00000000E+00  0.00000000E+00
  0.00000000E+00  0.00000000E+00  0.00000000E+00
  0.00000000E+00  0.00000000E+00  0.00000000E+00
  0.00000000E+00  0.00000000E+00  0.00000000E+00
  0.00000000E+00  0.00000000E+00  0.00000000E+00
  0.00000000E+00  0.00000000E+00  0.00000000E+00
  0.00000000E+00  0.00000000E+00  0.00000000E+00
  0.00000000E+00  0.00000000E+00  0.00000000E+00
