C4                                      
   1.00000000000000     
    14.8063199999999995    0.0000000000000000    0.0000000000000000
    -7.4031599999999997   12.8226492600000004    0.0000000000000000
     0.0000000000000000    0.0000000000000000   17.0000000000000000
   C    Ni
    72     3
Direct
  0.0556677265259253  0.1112032554934856  0.3864943845928224
  0.0002578418619734  0.0002146152591251  0.3863024632283754
  0.0556201687788302  0.2778243967323064  0.3867801846783721
  0.0001421209749068  0.1667698357583376  0.3865388059029158
  0.0556948321153214  0.4445294199995544  0.3870472060689849
  0.0001348707963444  0.3334388976848004  0.3869080146120609
  0.0557851106889018  0.6112286598108483  0.3871013922444959
  0.0002384379476084  0.5001251861066507  0.3871192532785344
  0.0558460064100359  0.7779816769875367  0.3867788316362848
  0.0003881075058203  0.6668677114926567  0.3870473633491684
  0.0558103507140544  0.9446739095698362  0.3863736436420879
  0.0003899257907278  0.8336496218030689  0.3865283800841652
  0.2222691629922195  0.1111311865957276  0.3866092715785143
  0.1668509815272614  0.0001340149823648  0.3864944622639896
  0.2221308464895628  0.2776968621717870  0.3868402021929711
  0.1667063301871821  0.1666664419144226  0.3866787516216306
  0.2221503452121567  0.4444852576775773  0.3870347471409730
  0.1666830953535765  0.3333712767780028  0.3869363241965615
  0.2223093158902500  0.6112346480575610  0.3869830419842017
  0.1667522076028476  0.5001253035382121  0.3870424816150546
  0.2223929274182055  0.7779106914295326  0.3867320118239306
  0.1668415610982947  0.6668187539780064  0.3869943455829130
  0.2223992065842708  0.9445864913864099  0.3865266408241439
  0.1669109134309039  0.8335249055866356  0.3866680821435935
  0.3889898766735058  0.1111201933102208  0.3866445885963614
  0.3335014064569251  0.0001339390742601  0.3865263058224215
  0.3887528105602911  0.2775304380004755  0.3866947820885898
  0.3333252331774261  0.1666031353142614  0.3866960507517305
  0.3880018676212131  0.4440045435199735  0.3868574961077371
  0.3331461178109762  0.3331799418290728  0.3868112981883129
  0.3888872090779927  0.6113562281402452  0.3867554597913951
  0.3332096648505427  0.4999970310617883  0.3869553546553348
  0.3889931721494477  0.7779934454329478  0.3866188439964020
  0.3333455317326184  0.6668757774117111  0.3868135144291287
  0.3890585377426206  0.9445963648616384  0.3864518188845238
  0.3334889843945774  0.8335405135473479  0.3865694716564789
  0.5557250665544728  0.1111303060915247  0.3866464748383791
  0.5001370376957155  0.0001434129849400  0.3864402054256431
  0.5556207986542248  0.2775301247318538  0.3867073855802801
  0.5001339170090162  0.1665973390139257  0.3867164374768990
  0.5551763187870620  0.4435402451866963  0.3855853906539082
  0.4996380250842734  0.3324370914287869  0.3864853808851265
  0.5553992569940789  0.6116694811173460  0.3855211495755100
  0.4993975147295586  0.4996569302471414  0.3857903508445588
  0.5556343143420648  0.7781742399826399  0.3861476142799916
  0.4996694185075654  0.6673423226042061  0.3864308998825621
  0.5557003667101768  0.9446798210692293  0.3863121861203282
  0.5001031575329904  0.8336545107877882  0.3863489246811227
  0.7224017021282592  0.1112232949587124  0.3865620210430549
  0.6668027899342803  0.0002263931787070  0.3863215842819159
  0.7224161703680139  0.2777072659167388  0.3869463829284996
  0.6668216310013335  0.1666808875121220  0.3867493686271146
  0.7228406914083152  0.4440289088878231  0.3871144584938904
  0.6668785164218463  0.3331893050718406  0.3869265809218234
  0.7231078367378458  0.6116682807776641  0.3857722275870401
  0.6670790596378424  0.4996627284202191  0.3860049421535123
  0.7228909297520687  0.7789257325877657  0.3857339565220954
  0.6673218322676604  0.6677931997159376  0.3851045592030218
  0.7224094814564026  0.9447683143707337  0.3861648815860619
  0.6669041471640398  0.8338305243657018  0.3859356446080184
  0.8890520979025638  0.1112428090893047  0.3864186017782032
  0.8335592331654240  0.0002503468253963  0.3862391036472772
  0.8890407791859829  0.2778345551917170  0.3868852264869176
  0.8334911907602276  0.1667815872681899  0.3866159781108038
  0.8891999764062746  0.4445037042092963  0.3871716682197572
  0.8335373725166448  0.3333905216296884  0.3870655133526171
  0.8893298104432787  0.6113632064516210  0.3870889770301602
  0.8336466993952456  0.5000141315840807  0.3872299687311553
  0.8893763484858894  0.7781666662316766  0.3863972021822804
  0.8345176810498529  0.6673377027019356  0.3867530074192871
  0.8892092050730440  0.9447521636309517  0.3861689001767701
  0.8337732708628423  0.8338217254117595  0.3860345004041363
  0.5376737225676251  0.5587154161318182  0.6000611309073562
  0.6832255857407503  0.5591707980153089  0.6017301969374245
  0.6111318594199133  0.5566173623188533  0.4827811151604280

