C4                                      
   1.00000000000000     
    14.8063199999999995    0.0000000000000000    0.0000000000000000
    -7.4031599999999997   12.8226492600000004    0.0000000000000000
     0.0000000000000000    0.0000000000000000   18.0000000000000000
   C    Pt
    72     4
Direct
  0.0549936915014442  0.1108674273514509  0.3634949685699596
  0.9999062162308618  0.0001538003126740  0.3617266192883690
  0.0535869132353213  0.2768523433259986  0.3670345881975976
  0.9991650856175625  0.1661815537688653  0.3639922356118390
  0.0548601982308341  0.4447061536989381  0.3630856960199793
  0.9990696784055615  0.3331142809714152  0.3630927541894877
  0.0554118145902294  0.6114051883776810  0.3607637925282035
  0.9997353394318509  0.5001919583861039  0.3605830224909852
  0.0555676839480341  0.7780167747746134  0.3603688311655233
  0.9999596379801190  0.6669622095712953  0.3600814221871289
  0.0555968903850115  0.9446336381395994  0.3612738707266843
  0.0001247563593765  0.8336854827832525  0.3605422012447903
  0.2224528386196170  0.1108837350411278  0.3634663986089066
  0.1668176685784175  0.0001660369254850  0.3616814903139343
  0.2211944457922570  0.2758081199712805  0.3700220765738536
  0.1663852275490783  0.1662123567945670  0.3650346085472762
  0.2221183682902677  0.4458958102241439  0.3747360469660066
  0.1651279458026309  0.3318870331123520  0.3746727646544059
  0.2218901162826725  0.6116263910693363  0.3640040605872628
  0.1656386981289799  0.5009521282982732  0.3670582290655062
  0.2221457042849124  0.7779927606400321  0.3609030541605946
  0.1663600169940480  0.6670567960974196  0.3616465769085195
  0.2223204432638113  0.9445013531937931  0.3609596446683199
  0.1666414744198761  0.8335453916771840  0.3605880819514269
  0.3891279161642842  0.1107613186801757  0.3615580998952908
  0.3333556164637628  0.9998172559833094  0.3608622829498600
  0.3898270184569697  0.2768699284518235  0.3669765076939697
  0.3336023273202144  0.1662009581433708  0.3638961105168335
  0.3903475164227359  0.4459087354392963  0.3747790359403140
  0.3333398796593272  0.3319061378103711  0.3747248731831263
  0.3890646952310917  0.6115758381516656  0.3651148617055640
  0.3342670729386867  0.5019809158174411  0.3701162892716781
  0.3886742233748279  0.7776598373619947  0.3617330488961059
  0.3330363210354719  0.6669377537391910  0.3635195211938935
  0.3888426126589763  0.9442548809871241  0.3605993219177819
  0.3331787990685342  0.8333220189722610  0.3610103602111678
  0.5555178488734640  0.1108477196904829  0.3600980554285158
  0.4998970571115819  0.9997827224897335  0.3604299959417219
  0.5557126666406376  0.2776278154763716  0.3604370429119825
  0.5000711013733152  0.1664123374925595  0.3606952807227657
  0.5563833587182003  0.4447101312080832  0.3629741394689958
  0.5005821210189225  0.3331173975477029  0.3629616277560288
  0.5563055515613087  0.6116099965796451  0.3639504852642261
  0.5018716947362378  0.5009522265799475  0.3669959171160073
  0.5555573636391458  0.7776362063522981  0.3617644974527394
  0.5004600762203140  0.6669125429744795  0.3635309266590170
  0.5553525698681057  0.9441267488296177  0.3605800983915017
  0.4998836384028706  0.8331806441807075  0.3613162440836177
  0.7219055142070658  0.1108523488020765  0.3601410269120819
  0.6664702677718850  0.9997910497723552  0.3604262004800489
  0.7221190684827192  0.2776487144559070  0.3591158468573923
  0.6665127926550198  0.1664600414038588  0.3596635784529738
  0.7224019252427496  0.4444771541020458  0.3592517162686875
  0.6668516610659054  0.3333605368851948  0.3592321127086322
  0.7225549931894335  0.6114013972388861  0.3607188575644500
  0.6669970644291681  0.5001918173622002  0.3604774053718529
  0.7224423246448168  0.7779852408381274  0.3609292803963413
  0.6672651613597580  0.6670479059555348  0.3615996274623043
  0.7220019310225112  0.9442606007148910  0.3606478748056787
  0.6667279265052315  0.8333098280293569  0.3610729432028990
  0.8882027637199030  0.1107459586372244  0.3616762668268834
  0.8330465505246423  0.9998063115623879  0.3609384491229193
  0.8884630576776189  0.2776319207516806  0.3606054874108153
  0.8329138027553569  0.1664120169744123  0.3608202812521242
  0.8886196883301025  0.4444617394074939  0.3593179036792691
  0.8330759532193994  0.3333622100140303  0.3593328002739113
  0.8889630961680695  0.6113535027109620  0.3596367497158184
  0.8333646843319684  0.5001678493469157  0.3591143793530307
  0.8890180304532365  0.7780192130877097  0.3603804870411906
  0.8335708436711045  0.6669568777379027  0.3600726071847831
  0.8887567022547813  0.9444864884228892  0.3610283072774649
  0.8334909632182530  0.8335481959928330  0.3606141516944774
  0.3266438442707127  0.4870832514457746  0.5974769542002178
  0.1916476187194718  0.3887020201513138  0.4914640322613266
  0.2278969026595234  0.2899854651185478  0.5974064664549488
  0.3632779665678214  0.3886312196309731  0.4915305259681091
 
  0.00000000E+00  0.00000000E+00  0.00000000E+00
  0.00000000E+00  0.00000000E+00  0.00000000E+00
  0.00000000E+00  0.00000000E+00  0.00000000E+00
  0.00000000E+00  0.00000000E+00  0.00000000E+00
  0.00000000E+00  0.00000000E+00  0.00000000E+00
  0.00000000E+00  0.00000000E+00  0.00000000E+00
  0.00000000E+00  0.00000000E+00  0.00000000E+00
  0.00000000E+00  0.00000000E+00  0.00000000E+00
  0.00000000E+00  0.00000000E+00  0.00000000E+00
  0.00000000E+00  0.00000000E+00  0.00000000E+00
  0.00000000E+00  0.00000000E+00  0.00000000E+00
  0.00000000E+00  0.00000000E+00  0.00000000E+00
  0.00000000E+00  0.00000000E+00  0.00000000E+00
  0.00000000E+00  0.00000000E+00  0.00000000E+00
  0.00000000E+00  0.00000000E+00  0.00000000E+00
  0.00000000E+00  0.00000000E+00  0.00000000E+00
  0.00000000E+00  0.00000000E+00  0.00000000E+00
  0.00000000E+00  0.00000000E+00  0.00000000E+00
  0.00000000E+00  0.00000000E+00  0.00000000E+00
  0.00000000E+00  0.00000000E+00  0.00000000E+00
  0.00000000E+00  0.00000000E+00  0.00000000E+00
  0.00000000E+00  0.00000000E+00  0.00000000E+00
  0.00000000E+00  0.00000000E+00  0.00000000E+00
  0.00000000E+00  0.00000000E+00  0.00000000E+00
  0.00000000E+00  0.00000000E+00  0.00000000E+00
  0.00000000E+00  0.00000000E+00  0.00000000E+00
  0.00000000E+00  0.00000000E+00  0.00000000E+00
  0.00000000E+00  0.00000000E+00  0.00000000E+00
  0.00000000E+00  0.00000000E+00  0.00000000E+00
  0.00000000E+00  0.00000000E+00  0.00000000E+00
  0.00000000E+00  0.00000000E+00  0.00000000E+00
  0.00000000E+00  0.00000000E+00  0.00000000E+00
  0.00000000E+00  0.00000000E+00  0.00000000E+00
  0.00000000E+00  0.00000000E+00  0.00000000E+00
  0.00000000E+00  0.00000000E+00  0.00000000E+00
  0.00000000E+00  0.00000000E+00  0.00000000E+00
  0.00000000E+00  0.00000000E+00  0.00000000E+00
  0.00000000E+00  0.00000000E+00  0.00000000E+00
  0.00000000E+00  0.00000000E+00  0.00000000E+00
  0.00000000E+00  0.00000000E+00  0.00000000E+00
  0.00000000E+00  0.00000000E+00  0.00000000E+00
  0.00000000E+00  0.00000000E+00  0.00000000E+00
  0.00000000E+00  0.00000000E+00  0.00000000E+00
  0.00000000E+00  0.00000000E+00  0.00000000E+00
  0.00000000E+00  0.00000000E+00  0.00000000E+00
  0.00000000E+00  0.00000000E+00  0.00000000E+00
  0.00000000E+00  0.00000000E+00  0.00000000E+00
  0.00000000E+00  0.00000000E+00  0.00000000E+00
  0.00000000E+00  0.00000000E+00  0.00000000E+00
  0.00000000E+00  0.00000000E+00  0.00000000E+00
  0.00000000E+00  0.00000000E+00  0.00000000E+00
  0.00000000E+00  0.00000000E+00  0.00000000E+00
  0.00000000E+00  0.00000000E+00  0.00000000E+00
  0.00000000E+00  0.00000000E+00  0.00000000E+00
  0.00000000E+00  0.00000000E+00  0.00000000E+00
  0.00000000E+00  0.00000000E+00  0.00000000E+00
  0.00000000E+00  0.00000000E+00  0.00000000E+00
  0.00000000E+00  0.00000000E+00  0.00000000E+00
  0.00000000E+00  0.00000000E+00  0.00000000E+00
  0.00000000E+00  0.00000000E+00  0.00000000E+00
  0.00000000E+00  0.00000000E+00  0.00000000E+00
  0.00000000E+00  0.00000000E+00  0.00000000E+00
  0.00000000E+00  0.00000000E+00  0.00000000E+00
  0.00000000E+00  0.00000000E+00  0.00000000E+00
  0.00000000E+00  0.00000000E+00  0.00000000E+00
  0.00000000E+00  0.00000000E+00  0.00000000E+00
  0.00000000E+00  0.00000000E+00  0.00000000E+00
  0.00000000E+00  0.00000000E+00  0.00000000E+00
  0.00000000E+00  0.00000000E+00  0.00000000E+00
  0.00000000E+00  0.00000000E+00  0.00000000E+00
  0.00000000E+00  0.00000000E+00  0.00000000E+00
  0.00000000E+00  0.00000000E+00  0.00000000E+00
  0.00000000E+00  0.00000000E+00  0.00000000E+00
  0.00000000E+00  0.00000000E+00  0.00000000E+00
  0.00000000E+00  0.00000000E+00  0.00000000E+00
  0.00000000E+00  0.00000000E+00  0.00000000E+00
