C4                                      
   1.00000000000000     
    14.8063199999999995    0.0000000000000000    0.0000000000000000
    -7.4031599999999997   12.8226492600000004    0.0000000000000000
     0.0000000000000000    0.0000000000000000   18.0000000000000000
   C    Ag
    72     1
Direct
  0.0555233533671569  0.1110833227629371  0.3624855221479848
  0.9999777734602091  0.9999763101392034  0.3625495872740885
  0.0555231355046359  0.2777729336044104  0.3624856442186797
  0.9999839792726846  0.1666590687157665  0.3625042668249279
  0.0555486508147780  0.4444479995341339  0.3625411760272570
  0.9999785651034117  0.3333363040545620  0.3625497753689828
  0.0555554251186905  0.6111117981816676  0.3624684538216982
  0.9999957527119818  0.5000014253120426  0.3625067163541829
  0.0555554618570113  0.7777777113089570  0.3624692993630916
  0.9999998898801081  0.6666662995894939  0.3624677998832624
  0.0555489062222989  0.9444346060002076  0.3625417657118106
  0.9999959454299727  0.8333281478132051  0.3625079492642485
  0.2222172610281206  0.1111005794819917  0.3624659340376155
  0.1666625115660949  0.9999928877144484  0.3625549436813529
  0.2220803402161167  0.2777063889436562  0.3621956028270930
  0.1666160365991232  0.1666173411475995  0.3623228217573313
  0.2222169027322920  0.4444495317404389  0.3624662381128019
  0.1666162380003797  0.3333325523472794  0.3623228146524298
  0.2222188693143181  0.6111178196428355  0.3625415696366474
  0.1666625782456990  0.5000030830994504  0.3625545491009490
  0.2222224552865057  0.7777780946484185  0.3625596220213509
  0.1666649707591503  0.6666698189456071  0.3625072921616237
  0.2222186185872133  0.9444346085258033  0.3625422432401848
  0.1666650591824919  0.8333274123876606  0.3625076935838152
  0.3888936622848078  0.1110829618365159  0.3624864943152204
  0.3333308248141904  0.9999758821624738  0.3625504039754048
  0.3889599740068874  0.2777062957051655  0.3621970385208186
  0.3333342671539015  0.1666174852465403  0.3623236196046804
  0.3889598924808695  0.4445863635598215  0.3621979837931093
  0.3333335832588205  0.3333337703842645  0.3624152345441303
  0.3888939390251593  0.6111434443709243  0.3624878705751584
  0.3333340865238199  0.5000504928123206  0.3623248542579844
  0.3888873186885746  0.7777908733348013  0.3625559465586079
  0.3333307936914665  0.6666879134420540  0.3625502672825647
  0.3888870044250154  0.9444300828683581  0.3625556117124873
  0.3333308304085634  0.8333315934896177  0.3625880818231622
  0.5555614520360450  0.1111049515488887  0.3624742847315687
  0.4999995453791399  0.9999927551918049  0.3624660762720211
  0.5555830156883061  0.2777729001641447  0.3624874805308451
  0.5000081945178394  0.1666589650868175  0.3625049875130983
  0.5555656726061073  0.4444496029010239  0.3624696708418185
  0.5000497771913359  0.3333331888700215  0.3623256539903892
  0.5555835988376572  0.6111438651940588  0.3624901170065726
  0.5000492158127230  0.5000509011304715  0.3623269954124382
  0.5555618384147252  0.7777905844550617  0.3624762066274556
  0.5000079724021091  0.6666825871438462  0.3625074370928232
  0.5555530411377205  0.9444436682983195  0.3624375725174502
  0.4999998398773542  0.8333405447477844  0.3624671931211978
  0.7222229124409481  0.1111129271606259  0.3624378350197617
  0.6666662003849666  0.9999997873209949  0.3624309925569804
  0.7222361643559907  0.2777788579109455  0.3625557406631401
  0.6666740805699334  0.1666667711298189  0.3624665801004099
  0.7222317375081388  0.4444476749956650  0.3625435790361777
  0.6666909371746783  0.3333357157675607  0.3625507512744903
  0.7222324211931195  0.6111176731037489  0.3625448393275121
  0.6666731820305500  0.5000033633639518  0.3625581457115814
  0.7222368706941538  0.7777907154181278  0.3625578019105617
  0.6666904791848012  0.6666880316834991  0.3625536949248627
  0.7222229038727193  0.9444434067236358  0.3624383488629519
  0.6666738844685582  0.8333401863854064  0.3624678308747917
  0.8888765759246837  0.1111043179268307  0.3624747036320173
  0.8333259898691168  0.9999927294924618  0.3624670884223349
  0.8888757455284235  0.2777789715379200  0.3625556636817748
  0.8333263117839564  0.1666670912523927  0.3624666930197264
  0.8888883927062849  0.4444440985480398  0.3625592664460129
  0.8333351013800296  0.3333361463365065  0.3625879582491436
  0.8888896871408534  0.6111111703047314  0.3624695279835137
  0.8333385944921048  0.5000012303570074  0.3625082030188835
  0.8888890300148020  0.7777779190674039  0.3625603069570076
  0.8333385451880986  0.6666703312943199  0.3625086918327369
  0.8888758904518923  0.9444297657315843  0.3625559914907512
  0.8333347204192734  0.8333319774717793  0.3625891606784606
  0.3333410702983244  0.3333438701282248  0.5405153406299164

