POSCAR                                  
   1.00000000000000     
    20.0000000000000000    0.0000000000000000    0.0000000000000000
     0.0000000000000000   20.0000000000000000    0.0000000000000000
     0.0000000000000000    0.0000000000000000   20.0000000000000000
   Pd   Au
     2     1
Direct
  0.4181443514880883  0.4426142047238457  0.4770045197275152
  0.5424854124422183  0.4620212038700515  0.4738948923989739
  0.4630286360696942  0.5637026414060955  0.4810957378735239
 
  0.00000000E+00  0.00000000E+00  0.00000000E+00
  0.00000000E+00  0.00000000E+00  0.00000000E+00
  0.00000000E+00  0.00000000E+00  0.00000000E+00
