Comment                                 
   1.00000000000000     
    20.0000000000000000    0.0000000000000000    0.0000000000000000
     0.0000000000000000   20.0000000000000000    0.0000000000000000
     0.0000000000000000    0.0000000000000000   20.0000000000000000
   Pt   Au
     2     2
Direct
  0.5153720163515167  0.3867003799677802  0.4249999999999972
  0.4413631915818035  0.4825543699264436  0.4249999999999972
  0.3910136625591984  0.3597996830139418  0.4249999999999972
  0.4650486295074836  0.6038400670918288  0.4249999999999972
 
  0.00000000E+00  0.00000000E+00  0.00000000E+00
  0.00000000E+00  0.00000000E+00  0.00000000E+00
  0.00000000E+00  0.00000000E+00  0.00000000E+00
  0.00000000E+00  0.00000000E+00  0.00000000E+00
