Comment                                 
   1.00000000000000     
    20.0000000000000000    0.0000000000000000    0.0000000000000000
     0.0000000000000000   20.0000000000000000    0.0000000000000000
     0.0000000000000000    0.0000000000000000   20.0000000000000000
   Ni   Au
     1     2
Direct
  0.4621015557227182  0.5141882345916997  0.4249999999999972
  0.5470151574810771  0.4345342439171347  0.4249999999999972
  0.4222457867961964  0.6236840214911723  0.4249999999999972
 
  0.00000000E+00  0.00000000E+00  0.00000000E+00
  0.00000000E+00  0.00000000E+00  0.00000000E+00
  0.00000000E+00  0.00000000E+00  0.00000000E+00
