Comment                                 
   1.00000000000000     
    20.0000000000000000    0.0000000000000000    0.0000000000000000
     0.0000000000000000   20.0000000000000000    0.0000000000000000
     0.0000000000000000    0.0000000000000000   20.0000000000000000
   Cu   Au
     1     3
Direct
  0.3665309661014471  0.3947297986833049  0.4249999999999972
  0.4919422969112785  0.3842127847147937  0.4249999999999972
  0.4279290459044987  0.5008395165350035  0.4249999999999972
  0.2949226410827712  0.4981904000669021  0.4249999999999972
 
  0.00000000E+00  0.00000000E+00  0.00000000E+00
  0.00000000E+00  0.00000000E+00  0.00000000E+00
  0.00000000E+00  0.00000000E+00  0.00000000E+00
  0.00000000E+00  0.00000000E+00  0.00000000E+00
