Comment                                 
   1.00000000000000     
    17.0000000000000000    0.0000000000000000    0.0000000000000000
     0.0000000000000000   17.0000000000000000    0.0000000000000000
     0.0000000000000000    0.0000000000000000   17.0000000000000000
   Ag
     3
Direct
  0.4742435287506055  0.5697712682083917  0.5000000000000000
  0.6528928724371141  0.5793215160117740  0.5000000000000000
  0.5568194811652205  0.7007972157798292  0.5000000000000000
 
  0.00000000E+00  0.00000000E+00  0.00000000E+00
  0.00000000E+00  0.00000000E+00  0.00000000E+00
  0.00000000E+00  0.00000000E+00  0.00000000E+00
