C4                                      
   1.00000000000000     
    14.8063199999999995    0.0000000000000000    0.0000000000000000
    -7.4031599999999997   12.8226492600000004    0.0000000000000000
     0.0000000000000000    0.0000000000000000   17.0000000000000000
   C    Cu   Au
    72     1     2
Direct
  0.0554820616148746  0.1110470587760091  0.3849640757072024
  0.0000735483851244  0.0000643012239934  0.3849640757072024
  0.0554107438208362  0.2776883240432966  0.3847192797913408
  0.9999275873717011  0.1666125970459120  0.3848444202618779
  0.0554847040029784  0.4444026580975233  0.3842362935197698
  0.9999506589664477  0.3332937121166282  0.3844588159141509
  0.0555444725846215  0.6110774116309940  0.3840933989947715
  0.0000111674153800  0.5000340083690062  0.3840933989947715
  0.0556049410335504  0.7778176278833726  0.3844588159141509
  0.0000709459970238  0.6667087619024770  0.3842362935197698
  0.0556280126282971  0.9444987429540888  0.3848444202618779
  0.0001448561791619  0.8334230159567042  0.3847192797913408
  0.2221699343352341  0.1111003511766384  0.3853748291922656
  0.1666948037312110  0.0000590183716795  0.3849914466057314
  0.2219203197039050  0.2775603238598165  0.3854661138484445
  0.1665458040033414  0.1665503361635459  0.3852148891315608
  0.2219255054652578  0.4443169769351769  0.3848318229303231
  0.1664863250967343  0.3332366649004115  0.3850319487058229
  0.2220610425330349  0.6111046696841242  0.3844240090967332
  0.1664978028333906  0.5000012925454129  0.3843670748830377
  0.2222239537001940  0.7778135172858356  0.3845242250268370
  0.1666410455703868  0.6667068221694450  0.3842714163303427
  0.2222420004653145  0.9444714960719764  0.3848876810548276
  0.1667105031921494  0.8334229838549803  0.3845742503829612
  0.3889273364874342  0.1110993135204907  0.3854751628102946
  0.3333598897268928  0.0000583392002085  0.3850767961679367
  0.3887983202226621  0.2776266189867584  0.3865228843025932
  0.3333438262004407  0.1667048968579223  0.3858085236351485
  0.3876937248888126  0.4437589899197221  0.3875226271641523
  0.3328992706062408  0.3329704259910926  0.3864339755691617
  0.3885971896253650  0.6112293555120587  0.3859609959274266
  0.3328548760170165  0.4998360776763349  0.3857175431359252
  0.3888229204610880  0.7778659161528267  0.3852433649582423
  0.3331645399328167  0.6667871717682132  0.3850399968995077
  0.3888803231203326  0.9445006077612419  0.3849860636560720
  0.3332795933435406  0.8334251525493244  0.3848543615968509
  0.5555685559727195  0.1110489746430900  0.3851311039727108
  0.4999870540272795  0.0000623853569124  0.3851311039727108
  0.5556280810792344  0.2775598096625416  0.3857076226917187
  0.4999907388657761  0.1665468472681013  0.3853937675793730
  0.5560236123226332  0.4437762145627815  0.3877937627597277
  0.5000385349087537  0.3329797152747958  0.3866893174896830
  0.5559984251697045  0.6118719225020328  0.3907138958893341
  0.4995572148302969  0.4992394974979746  0.3907138958893341
  0.5555170650912444  0.7781316247252050  0.3866893174896830
  0.4995320376773691  0.6673352054372188  0.3877937627597277
  0.5555648611342150  0.9445644927318995  0.3853937675793730
  0.4999275189207637  0.8335515303374592  0.3857076226917187
  0.7221957202731062  0.1110530207997940  0.3850767961679367
  0.6666282835125656  0.0000120464795117  0.3854751628102946
  0.7222760066564646  0.2776861874506764  0.3848543615968509
  0.6666752768796655  0.1666107322387589  0.3849860636560720
  0.7223911000671848  0.4443242482317871  0.3850399968995077
  0.6667326795389172  0.3332454238471740  0.3852433649582423
  0.7227007639829779  0.6112753423236654  0.3857175431359252
  0.6669584503746364  0.4998820644879416  0.3859609959274266
  0.7226563393937582  0.7781409140089082  0.3864339755691617
  0.6678619151111818  0.6673524300802782  0.3875226271641523
  0.7222117837995583  0.9444064431420784  0.3858085236351485
  0.6667572797773360  0.8334847210132423  0.3865228843025932
  0.8888608162687888  0.1110523416283229  0.3849914466057314
  0.8333856756647648  0.0000110088233640  0.3853748291922656
  0.8888450968078487  0.2776883561450205  0.3845742503829612
  0.8333136095346845  0.1666398439280243  0.3848876810548276
  0.8889145944296075  0.4444045978305482  0.3842714163303427
  0.8333316562998050  0.3332978227141652  0.3845242250268370
  0.8890578371666109  0.6111101274545874  0.3843670748830377
  0.8334945974669594  0.5000067503158760  0.3844240090967332
  0.8890692749032709  0.7778746750995893  0.3850319487058229
  0.8336301345347508  0.6667944430648234  0.3848318229303231
  0.8890097959966567  0.9445610038364549  0.3852148891315608
  0.8336352802961002  0.8335510161401842  0.3854661138484445
  0.5277778199999972  0.5555556300000006  0.5063933924740667
  0.4414671096836571  0.4604736772564593  0.6277301261791735
  0.6140885203163435  0.6506375827435420  0.6277301261791735
 
  0.00000000E+00  0.00000000E+00  0.00000000E+00
  0.00000000E+00  0.00000000E+00  0.00000000E+00
  0.00000000E+00  0.00000000E+00  0.00000000E+00
  0.00000000E+00  0.00000000E+00  0.00000000E+00
  0.00000000E+00  0.00000000E+00  0.00000000E+00
  0.00000000E+00  0.00000000E+00  0.00000000E+00
  0.00000000E+00  0.00000000E+00  0.00000000E+00
  0.00000000E+00  0.00000000E+00  0.00000000E+00
  0.00000000E+00  0.00000000E+00  0.00000000E+00
  0.00000000E+00  0.00000000E+00  0.00000000E+00
  0.00000000E+00  0.00000000E+00  0.00000000E+00
  0.00000000E+00  0.00000000E+00  0.00000000E+00
  0.00000000E+00  0.00000000E+00  0.00000000E+00
  0.00000000E+00  0.00000000E+00  0.00000000E+00
  0.00000000E+00  0.00000000E+00  0.00000000E+00
  0.00000000E+00  0.00000000E+00  0.00000000E+00
  0.00000000E+00  0.00000000E+00  0.00000000E+00
  0.00000000E+00  0.00000000E+00  0.00000000E+00
  0.00000000E+00  0.00000000E+00  0.00000000E+00
  0.00000000E+00  0.00000000E+00  0.00000000E+00
  0.00000000E+00  0.00000000E+00  0.00000000E+00
  0.00000000E+00  0.00000000E+00  0.00000000E+00
  0.00000000E+00  0.00000000E+00  0.00000000E+00
  0.00000000E+00  0.00000000E+00  0.00000000E+00
  0.00000000E+00  0.00000000E+00  0.00000000E+00
  0.00000000E+00  0.00000000E+00  0.00000000E+00
  0.00000000E+00  0.00000000E+00  0.00000000E+00
  0.00000000E+00  0.00000000E+00  0.00000000E+00
  0.00000000E+00  0.00000000E+00  0.00000000E+00
  0.00000000E+00  0.00000000E+00  0.00000000E+00
  0.00000000E+00  0.00000000E+00  0.00000000E+00
  0.00000000E+00  0.00000000E+00  0.00000000E+00
  0.00000000E+00  0.00000000E+00  0.00000000E+00
  0.00000000E+00  0.00000000E+00  0.00000000E+00
  0.00000000E+00  0.00000000E+00  0.00000000E+00
  0.00000000E+00  0.00000000E+00  0.00000000E+00
  0.00000000E+00  0.00000000E+00  0.00000000E+00
  0.00000000E+00  0.00000000E+00  0.00000000E+00
  0.00000000E+00  0.00000000E+00  0.00000000E+00
  0.00000000E+00  0.00000000E+00  0.00000000E+00
  0.00000000E+00  0.00000000E+00  0.00000000E+00
  0.00000000E+00  0.00000000E+00  0.00000000E+00
  0.00000000E+00  0.00000000E+00  0.00000000E+00
  0.00000000E+00  0.00000000E+00  0.00000000E+00
  0.00000000E+00  0.00000000E+00  0.00000000E+00
  0.00000000E+00  0.00000000E+00  0.00000000E+00
  0.00000000E+00  0.00000000E+00  0.00000000E+00
  0.00000000E+00  0.00000000E+00  0.00000000E+00
  0.00000000E+00  0.00000000E+00  0.00000000E+00
  0.00000000E+00  0.00000000E+00  0.00000000E+00
  0.00000000E+00  0.00000000E+00  0.00000000E+00
  0.00000000E+00  0.00000000E+00  0.00000000E+00
  0.00000000E+00  0.00000000E+00  0.00000000E+00
  0.00000000E+00  0.00000000E+00  0.00000000E+00
  0.00000000E+00  0.00000000E+00  0.00000000E+00
  0.00000000E+00  0.00000000E+00  0.00000000E+00
  0.00000000E+00  0.00000000E+00  0.00000000E+00
  0.00000000E+00  0.00000000E+00  0.00000000E+00
  0.00000000E+00  0.00000000E+00  0.00000000E+00
  0.00000000E+00  0.00000000E+00  0.00000000E+00
  0.00000000E+00  0.00000000E+00  0.00000000E+00
  0.00000000E+00  0.00000000E+00  0.00000000E+00
  0.00000000E+00  0.00000000E+00  0.00000000E+00
  0.00000000E+00  0.00000000E+00  0.00000000E+00
  0.00000000E+00  0.00000000E+00  0.00000000E+00
  0.00000000E+00  0.00000000E+00  0.00000000E+00
  0.00000000E+00  0.00000000E+00  0.00000000E+00
  0.00000000E+00  0.00000000E+00  0.00000000E+00
  0.00000000E+00  0.00000000E+00  0.00000000E+00
  0.00000000E+00  0.00000000E+00  0.00000000E+00
  0.00000000E+00  0.00000000E+00  0.00000000E+00
  0.00000000E+00  0.00000000E+00  0.00000000E+00
  0.00000000E+00  0.00000000E+00  0.00000000E+00
  0.00000000E+00  0.00000000E+00  0.00000000E+00
  0.00000000E+00  0.00000000E+00  0.00000000E+00
