C4                                      
   1.00000000000000     
    14.8063199999999995    0.0000000000000000    0.0000000000000000
    -7.4031599999999997   12.8226492600000004    0.0000000000000000
     0.0000000000000000    0.0000000000000000   18.0000000000000000
   C    Pd   Au
    72     2     2
Direct
  0.0551060644188652  0.1108600127886348  0.3640178137441552
  0.9998450804152768  0.9999823431211041  0.3624641520524889
  0.0541998706153137  0.2772040486650695  0.3661935639703842
  0.9993800320001895  0.1662210632200285  0.3642985742749758
  0.0547360876486920  0.4444647106288286  0.3625816970942850
  0.9991522598963769  0.3332844503660155  0.3625853632037419
  0.0553886716896130  0.6112767673231687  0.3612882116003959
  0.9996869530747006  0.5000817156948401  0.3608746835361174
  0.0555273578339381  0.7778854099283095  0.3611463633916827
  0.9999358450514535  0.6667867658720965  0.3607732842815352
  0.0555061609500527  0.9444638506707221  0.3620402579821302
  0.0000320209956186  0.8335057095739486  0.3613202953626953
  0.2223114283875063  0.1108706807704465  0.3639622069020163
  0.1666973702520949  0.9999869836471902  0.3624290744177756
  0.2214638737737999  0.2763715231321768  0.3690807785429939
  0.1663715861218336  0.1661888130185858  0.3653787917453002
  0.2220159864508773  0.4452490029179259  0.3708540313754582
  0.1656301409984025  0.3324945986137351  0.3709080893600500
  0.2220447128341334  0.6115159940520911  0.3641983120460637
  0.1658741272432920  0.5005324763895089  0.3661282067115437
  0.2221314068021414  0.7778703078381639  0.3617037868809163
  0.1664628848057177  0.6669157981519689  0.3622434373433023
  0.2222229905936857  0.9444301968003685  0.3617895773531075
  0.1665759493557886  0.8334010575717201  0.3613986884453411
  0.3889673511847107  0.1108106861369222  0.3621962789947091
  0.3333158078321716  0.9998650347420366  0.3616883218383933
  0.3895403485942950  0.2772145237536421  0.3660675420358857
  0.3333977436189812  0.1662303182063170  0.3641675365135697
  0.3897926007619148  0.4452462839418203  0.3708572927421443
  0.3334143268958840  0.3324935339958301  0.3708718817640744
  0.3890538458351003  0.6115488641607811  0.3653201566993260
  0.3339669327517285  0.5013761111908082  0.3690112209924408
  0.3887401466542855  0.7777659236585492  0.3624396772644047
  0.3331338613500989  0.6668827429244573  0.3639279831762821
  0.3888660093527605  0.9443391218828978  0.3614212728405661
  0.3332292394985146  0.8333220665911085  0.3618047819813128
  0.5554916107341299  0.1109438501841140  0.3607320711479574
  0.4998985273348069  0.9998502318350475  0.3611681074829320
  0.5557097787882839  0.2776510592906547  0.3607400905160958
  0.5000313023442118  0.1664519664953303  0.3612010547102429
  0.5562685157622127  0.4444655168981484  0.3624975343363062
  0.5006634801066312  0.3332832734116238  0.3624610842866858
  0.5560529948480379  0.6115201706383218  0.3642680177611552
  0.5012237657672642  0.5005403304754310  0.3661279735781733
  0.5555956144176264  0.7777669455963974  0.3625289402098844
  0.5003230182967755  0.6668806886364536  0.3640045932209546
  0.5553988930023834  0.9442481003196832  0.3613472001965690
  0.4999307707854470  0.8332921462568805  0.3620805217505207
  0.7220183850875870  0.1109490316683761  0.3607816563941526
  0.6665192279553196  0.9998562448737403  0.3612089506923013
  0.7220875790283827  0.2776052904992738  0.3597925104065496
  0.6665504396784527  0.1665364484585368  0.3602828477838145
  0.7223585131319155  0.4444259452005426  0.3598598613203023
  0.6668031247414277  0.3333287854836868  0.3598581755008254
  0.7224592136070456  0.6112859179226646  0.3613051739118873
  0.6669426630458233  0.5000928530627675  0.3607908158400761
  0.7223363230480473  0.7778777078058354  0.3618320031895266
  0.6670394927148493  0.6669314046674515  0.3623231813302610
  0.7220579761415991  0.9443551466838542  0.3615321720506302
  0.6666810600362183  0.8333274723824289  0.3619597155481600
  0.8884002056563105  0.1108099370800488  0.3623114338035336
  0.8331304847451548  0.9998676528978407  0.3617977087982496
  0.8884828295333378  0.2776603627908116  0.3608245062075639
  0.8329784512048874  0.1664567541800324  0.3612780970018292
  0.8886152439447201  0.4444134638677326  0.3599138632054277
  0.8330758983636315  0.3333304076431602  0.3598789200061319
  0.8888819341636562  0.6111964608537548  0.3603221545624749
  0.8333467611416410  0.5001352172175473  0.3598302163985778
  0.8889239670835991  0.7778947386960198  0.3612071589688099
  0.8334245305651464  0.6667986770994361  0.3607994560595031
  0.8887788734587758  0.9444239400426682  0.3618762122953569
  0.8334083288606209  0.8334084264779875  0.3615044274402379
  0.1853813870142531  0.3890245139280637  0.4894216941778708
  0.3701268487267271  0.3893451441361506  0.4894052415476651
  0.3311665717570378  0.4964926992182157  0.5928448941361779
  0.2242513368362040  0.2818872531814947  0.5927965537629802
 
  0.00000000E+00  0.00000000E+00  0.00000000E+00
  0.00000000E+00  0.00000000E+00  0.00000000E+00
  0.00000000E+00  0.00000000E+00  0.00000000E+00
  0.00000000E+00  0.00000000E+00  0.00000000E+00
  0.00000000E+00  0.00000000E+00  0.00000000E+00
  0.00000000E+00  0.00000000E+00  0.00000000E+00
  0.00000000E+00  0.00000000E+00  0.00000000E+00
  0.00000000E+00  0.00000000E+00  0.00000000E+00
  0.00000000E+00  0.00000000E+00  0.00000000E+00
  0.00000000E+00  0.00000000E+00  0.00000000E+00
  0.00000000E+00  0.00000000E+00  0.00000000E+00
  0.00000000E+00  0.00000000E+00  0.00000000E+00
  0.00000000E+00  0.00000000E+00  0.00000000E+00
  0.00000000E+00  0.00000000E+00  0.00000000E+00
  0.00000000E+00  0.00000000E+00  0.00000000E+00
  0.00000000E+00  0.00000000E+00  0.00000000E+00
  0.00000000E+00  0.00000000E+00  0.00000000E+00
  0.00000000E+00  0.00000000E+00  0.00000000E+00
  0.00000000E+00  0.00000000E+00  0.00000000E+00
  0.00000000E+00  0.00000000E+00  0.00000000E+00
  0.00000000E+00  0.00000000E+00  0.00000000E+00
  0.00000000E+00  0.00000000E+00  0.00000000E+00
  0.00000000E+00  0.00000000E+00  0.00000000E+00
  0.00000000E+00  0.00000000E+00  0.00000000E+00
  0.00000000E+00  0.00000000E+00  0.00000000E+00
  0.00000000E+00  0.00000000E+00  0.00000000E+00
  0.00000000E+00  0.00000000E+00  0.00000000E+00
  0.00000000E+00  0.00000000E+00  0.00000000E+00
  0.00000000E+00  0.00000000E+00  0.00000000E+00
  0.00000000E+00  0.00000000E+00  0.00000000E+00
  0.00000000E+00  0.00000000E+00  0.00000000E+00
  0.00000000E+00  0.00000000E+00  0.00000000E+00
  0.00000000E+00  0.00000000E+00  0.00000000E+00
  0.00000000E+00  0.00000000E+00  0.00000000E+00
  0.00000000E+00  0.00000000E+00  0.00000000E+00
  0.00000000E+00  0.00000000E+00  0.00000000E+00
  0.00000000E+00  0.00000000E+00  0.00000000E+00
  0.00000000E+00  0.00000000E+00  0.00000000E+00
  0.00000000E+00  0.00000000E+00  0.00000000E+00
  0.00000000E+00  0.00000000E+00  0.00000000E+00
  0.00000000E+00  0.00000000E+00  0.00000000E+00
  0.00000000E+00  0.00000000E+00  0.00000000E+00
  0.00000000E+00  0.00000000E+00  0.00000000E+00
  0.00000000E+00  0.00000000E+00  0.00000000E+00
  0.00000000E+00  0.00000000E+00  0.00000000E+00
  0.00000000E+00  0.00000000E+00  0.00000000E+00
  0.00000000E+00  0.00000000E+00  0.00000000E+00
  0.00000000E+00  0.00000000E+00  0.00000000E+00
  0.00000000E+00  0.00000000E+00  0.00000000E+00
  0.00000000E+00  0.00000000E+00  0.00000000E+00
  0.00000000E+00  0.00000000E+00  0.00000000E+00
  0.00000000E+00  0.00000000E+00  0.00000000E+00
  0.00000000E+00  0.00000000E+00  0.00000000E+00
  0.00000000E+00  0.00000000E+00  0.00000000E+00
  0.00000000E+00  0.00000000E+00  0.00000000E+00
  0.00000000E+00  0.00000000E+00  0.00000000E+00
  0.00000000E+00  0.00000000E+00  0.00000000E+00
  0.00000000E+00  0.00000000E+00  0.00000000E+00
  0.00000000E+00  0.00000000E+00  0.00000000E+00
  0.00000000E+00  0.00000000E+00  0.00000000E+00
  0.00000000E+00  0.00000000E+00  0.00000000E+00
  0.00000000E+00  0.00000000E+00  0.00000000E+00
  0.00000000E+00  0.00000000E+00  0.00000000E+00
  0.00000000E+00  0.00000000E+00  0.00000000E+00
  0.00000000E+00  0.00000000E+00  0.00000000E+00
  0.00000000E+00  0.00000000E+00  0.00000000E+00
  0.00000000E+00  0.00000000E+00  0.00000000E+00
  0.00000000E+00  0.00000000E+00  0.00000000E+00
  0.00000000E+00  0.00000000E+00  0.00000000E+00
  0.00000000E+00  0.00000000E+00  0.00000000E+00
  0.00000000E+00  0.00000000E+00  0.00000000E+00
  0.00000000E+00  0.00000000E+00  0.00000000E+00
  0.00000000E+00  0.00000000E+00  0.00000000E+00
  0.00000000E+00  0.00000000E+00  0.00000000E+00
  0.00000000E+00  0.00000000E+00  0.00000000E+00
  0.00000000E+00  0.00000000E+00  0.00000000E+00
