C4                                      
   1.00000000000000     
    14.8063199999999995    0.0000000000000000    0.0000000000000000
    -7.4031599999999997   12.8226492600000004    0.0000000000000000
     0.0000000000000000    0.0000000000000000   17.0000000000000000
   C    Pd   Au
    72     1     2
Direct
  0.0545405115429674  0.1117963570111797  0.3827948215152830
  0.9991151205091100  0.0007527971038712  0.3828636179259490
  0.0544528187571629  0.2783998468743860  0.3823996705952268
  0.9989892882732718  0.1673561173163165  0.3827029171842469
  0.0545122727204586  0.4451247563755132  0.3818794231639657
  0.9989552484418809  0.3340371910632953  0.3822556047862804
  0.0546156125706716  0.6118306432383704  0.3820971846514993
  0.9990531781417076  0.5007437569608442  0.3821160137440955
  0.0546940712920616  0.7785357682221488  0.3825202018693687
  0.9991636325802986  0.6674632087691208  0.3823799072992387
  0.0546785810508794  0.9452123371455343  0.3828332602179785
  0.9992018351882379  0.8341690963942057  0.3827503801901599
  0.2212279352210587  0.1117917821755370  0.3832661783120983
  0.1657927858087476  0.0008031895628378  0.3829996715510404
  0.2209398685576716  0.2782832224121208  0.3830528371891404
  0.1655637587616425  0.1672902300746202  0.3829781657251630
  0.2210222796844477  0.4451133513787013  0.3819339020506476
  0.1655147731196038  0.3339661165875327  0.3824386948601841
  0.2211192914412550  0.6118084552910261  0.3816527339266713
  0.1655531984076219  0.5007440798088254  0.3815980439197020
  0.2212672674316067  0.7785283593131140  0.3824247926113884
  0.1656818364700570  0.6674364065602845  0.3819880189673484
  0.2213215188007780  0.9452135593169686  0.3829982518080826
  0.1657721232214371  0.8341298647939155  0.3826339999059982
  0.3879407834404560  0.1118038007806064  0.3838150376022966
  0.3323916939645812  0.0007870125846594  0.3833122137194351
  0.3878264898419772  0.2783626882583690  0.3848350897509292
  0.3323906379168733  0.1674240832111451  0.3839013336510817
  0.3866508450225155  0.4444945184758637  0.3857281563061221
  0.3319525782049979  0.3337579969017810  0.3843440801966409
  0.3875982529188491  0.6119140747956564  0.3827972336567242
  0.3318792106878590  0.5006487414073177  0.3828479470013448
  0.3878879022612054  0.7785768559188000  0.3828148882411426
  0.3322424726670619  0.6674349636425347  0.3820034600371116
  0.3879373970673257  0.9451855824329982  0.3831565982029872
  0.3323577341615334  0.8341416707755940  0.3828114708422703
  0.5546358754231449  0.1118060893546087  0.3835571267142512
  0.4990423848055485  0.0007636263253801  0.3832723645532496
  0.5546196146676650  0.2782742086016299  0.3847464891832786
  0.4990418190723602  0.1672908320094137  0.3840046764372858
  0.5550054084841847  0.4446203895926217  0.3879684312316058
  0.4989571967188411  0.3336633382411733  0.3860420050060043
  0.5549438482459195  0.6125741664652651  0.3903591156432995
  0.4984565095618052  0.5000876297829038  0.3901184152508890
  0.5545441393523021  0.7787760209628658  0.3841625063608944
  0.4985130192550287  0.6679997967663738  0.3858268540391308
  0.5545988563695019  0.9452539990416966  0.3831895798621900
  0.4989640495114998  0.8342719698351146  0.3831961168171603
  0.7212420005371740  0.1117553656005725  0.3832665406493305
  0.6657147200640452  0.0007511071175514  0.3833576149830336
  0.7212667052865029  0.2784396109671974  0.3835138288376427
  0.6656900578007878  0.1673556235766469  0.3834678020989770
  0.7214696928953828  0.4451874016500668  0.3839785079482922
  0.6657523518453985  0.3339825739229312  0.3842066220672748
  0.7218536492158663  0.6120956120884742  0.3844151591148375
  0.6662162125595117  0.5007796120523338  0.3853564829868219
  0.7215974164727470  0.7787429387371532  0.3844689217563584
  0.6667600511601179  0.6680512777569163  0.3864019990978917
  0.7212591296828563  0.9451064169703116  0.3835160524784342
  0.6657536829675550  0.8341572576545957  0.3841066495856396
  0.8878734621461035  0.1117596154214411  0.3829425452020061
  0.8324022425942488  0.0007306885897762  0.3832109067599063
  0.8878958815340141  0.2784581378545283  0.3827059001530415
  0.8323621577304863  0.1673628142510921  0.3830147133386106
  0.8879666672515398  0.4451352533326727  0.3826099599248423
  0.8323982783320929  0.3340606218868700  0.3829297628852331
  0.8881280929182722  0.6118565573150008  0.3826514586130685
  0.8325687541415334  0.5008114152656589  0.3829514708841018
  0.8881795288238266  0.7786646592152735  0.3830263459559333
  0.8326782302505578  0.6675309266398699  0.3830291295881949
  0.8880476283194483  0.9452207019541774  0.3830637296852899
  0.8326963033384516  0.8342591517516027  0.3833777432005974
  0.5272110727161277  0.5462491569777725  0.5144365940282896
  0.4831830022775705  0.6694227080941886  0.5958423585246138
  0.5051952495201135  0.5233045134408130  0.6681026553737652
 
  0.00000000E+00  0.00000000E+00  0.00000000E+00
  0.00000000E+00  0.00000000E+00  0.00000000E+00
  0.00000000E+00  0.00000000E+00  0.00000000E+00
  0.00000000E+00  0.00000000E+00  0.00000000E+00
  0.00000000E+00  0.00000000E+00  0.00000000E+00
  0.00000000E+00  0.00000000E+00  0.00000000E+00
  0.00000000E+00  0.00000000E+00  0.00000000E+00
  0.00000000E+00  0.00000000E+00  0.00000000E+00
  0.00000000E+00  0.00000000E+00  0.00000000E+00
  0.00000000E+00  0.00000000E+00  0.00000000E+00
  0.00000000E+00  0.00000000E+00  0.00000000E+00
  0.00000000E+00  0.00000000E+00  0.00000000E+00
  0.00000000E+00  0.00000000E+00  0.00000000E+00
  0.00000000E+00  0.00000000E+00  0.00000000E+00
  0.00000000E+00  0.00000000E+00  0.00000000E+00
  0.00000000E+00  0.00000000E+00  0.00000000E+00
  0.00000000E+00  0.00000000E+00  0.00000000E+00
  0.00000000E+00  0.00000000E+00  0.00000000E+00
  0.00000000E+00  0.00000000E+00  0.00000000E+00
  0.00000000E+00  0.00000000E+00  0.00000000E+00
  0.00000000E+00  0.00000000E+00  0.00000000E+00
  0.00000000E+00  0.00000000E+00  0.00000000E+00
  0.00000000E+00  0.00000000E+00  0.00000000E+00
  0.00000000E+00  0.00000000E+00  0.00000000E+00
  0.00000000E+00  0.00000000E+00  0.00000000E+00
  0.00000000E+00  0.00000000E+00  0.00000000E+00
  0.00000000E+00  0.00000000E+00  0.00000000E+00
  0.00000000E+00  0.00000000E+00  0.00000000E+00
  0.00000000E+00  0.00000000E+00  0.00000000E+00
  0.00000000E+00  0.00000000E+00  0.00000000E+00
  0.00000000E+00  0.00000000E+00  0.00000000E+00
  0.00000000E+00  0.00000000E+00  0.00000000E+00
  0.00000000E+00  0.00000000E+00  0.00000000E+00
  0.00000000E+00  0.00000000E+00  0.00000000E+00
  0.00000000E+00  0.00000000E+00  0.00000000E+00
  0.00000000E+00  0.00000000E+00  0.00000000E+00
  0.00000000E+00  0.00000000E+00  0.00000000E+00
  0.00000000E+00  0.00000000E+00  0.00000000E+00
  0.00000000E+00  0.00000000E+00  0.00000000E+00
  0.00000000E+00  0.00000000E+00  0.00000000E+00
  0.00000000E+00  0.00000000E+00  0.00000000E+00
  0.00000000E+00  0.00000000E+00  0.00000000E+00
  0.00000000E+00  0.00000000E+00  0.00000000E+00
  0.00000000E+00  0.00000000E+00  0.00000000E+00
  0.00000000E+00  0.00000000E+00  0.00000000E+00
  0.00000000E+00  0.00000000E+00  0.00000000E+00
  0.00000000E+00  0.00000000E+00  0.00000000E+00
  0.00000000E+00  0.00000000E+00  0.00000000E+00
  0.00000000E+00  0.00000000E+00  0.00000000E+00
  0.00000000E+00  0.00000000E+00  0.00000000E+00
  0.00000000E+00  0.00000000E+00  0.00000000E+00
  0.00000000E+00  0.00000000E+00  0.00000000E+00
  0.00000000E+00  0.00000000E+00  0.00000000E+00
  0.00000000E+00  0.00000000E+00  0.00000000E+00
  0.00000000E+00  0.00000000E+00  0.00000000E+00
  0.00000000E+00  0.00000000E+00  0.00000000E+00
  0.00000000E+00  0.00000000E+00  0.00000000E+00
  0.00000000E+00  0.00000000E+00  0.00000000E+00
  0.00000000E+00  0.00000000E+00  0.00000000E+00
  0.00000000E+00  0.00000000E+00  0.00000000E+00
  0.00000000E+00  0.00000000E+00  0.00000000E+00
  0.00000000E+00  0.00000000E+00  0.00000000E+00
  0.00000000E+00  0.00000000E+00  0.00000000E+00
  0.00000000E+00  0.00000000E+00  0.00000000E+00
  0.00000000E+00  0.00000000E+00  0.00000000E+00
  0.00000000E+00  0.00000000E+00  0.00000000E+00
  0.00000000E+00  0.00000000E+00  0.00000000E+00
  0.00000000E+00  0.00000000E+00  0.00000000E+00
  0.00000000E+00  0.00000000E+00  0.00000000E+00
  0.00000000E+00  0.00000000E+00  0.00000000E+00
  0.00000000E+00  0.00000000E+00  0.00000000E+00
  0.00000000E+00  0.00000000E+00  0.00000000E+00
  0.00000000E+00  0.00000000E+00  0.00000000E+00
  0.00000000E+00  0.00000000E+00  0.00000000E+00
  0.00000000E+00  0.00000000E+00  0.00000000E+00
