C4                                      
   1.00000000000000     
    14.8063199999999995    0.0000000000000000    0.0000000000000000
    -7.4031599999999997   12.8226492600000004    0.0000000000000000
     0.0000000000000000    0.0000000000000000   18.0000000000000000
   C    Pd   Au
    72     1     1
Direct
  0.0550493777412981  0.1114718321599710  0.3609589969000453
  0.9995528736139718  0.0004104924363091  0.3611192463444652
  0.0552427018620918  0.2782554336530438  0.3611869028841497
  0.9995716717871517  0.1670529262141471  0.3611783057130111
  0.0549933176167556  0.4448712187924144  0.3603958781235335
  0.9995678371934034  0.3337896769215263  0.3607639834089653
  0.0550291569537649  0.6115542346456238  0.3600783160089520
  0.9995172117637452  0.5004539488989153  0.3602104001895441
  0.0550878449411485  0.7782295416837499  0.3604155826230624
  0.9995087301206880  0.6671156464231416  0.3604754924163771
  0.0550969105599819  0.9448556546646927  0.3607255348711220
  0.9995574856110849  0.8337674519761862  0.3609868307345252
  0.2217142343675746  0.1114725058995205  0.3600233045820431
  0.1661834176881953  0.0003771044564260  0.3600359931902233
  0.2215948163370243  0.2778999705937153  0.3615088900598451
  0.1660930592894587  0.1668934989779274  0.3606475945346901
  0.2214873525054841  0.4449444891341443  0.3617394844804593
  0.1661095863267761  0.3336828185837817  0.3617044080485172
  0.2215564366513760  0.6115895561938203  0.3599870067624806
  0.1660193331147042  0.5005454193905123  0.3605501229068437
  0.2216840796171979  0.7782539949029825  0.3594786724537826
  0.1661100778462483  0.6671719984149576  0.3597525328701749
  0.2217143341230710  0.9448725462654721  0.3595393490433310
  0.1661597586371997  0.8337785105541400  0.3597482696490104
  0.3884073137290898  0.1114739944968548  0.3589608405846008
  0.3328441408484721  0.0004581571572970  0.3590890682604950
  0.3882201188170100  0.2778993271317916  0.3602950165853684
  0.3328134987421123  0.1670011720096269  0.3593403733441463
  0.3876147756006105  0.4443821241223702  0.3681225222772397
  0.3322282867893804  0.3326231393048928  0.3627666730719454
  0.3880262181207286  0.6118445570257407  0.3615178064506850
  0.3321196068107142  0.5008344955842787  0.3635578346762287
  0.3883722735896100  0.7784113208969998  0.3596801218908325
  0.3327097440854274  0.6672629087094393  0.3599523914895428
  0.3884236961209950  0.9449356551908750  0.3591746267843448
  0.3328169233042146  0.8338505548478210  0.3593147816950051
  0.5551164387749097  0.1115397313620790  0.3593386114735466
  0.4995125002080414  0.0004424832683938  0.3593932193224560
  0.5551374058214407  0.2780616145201193  0.3596962661110652
  0.4995339937972432  0.1669573739612886  0.3590986458165517
  0.5558333004564844  0.4442183978351721  0.3633786123675762
  0.4996498709739541  0.3334259711617236  0.3606418798848381
  0.5555530774584128  0.6123244959268064  0.3660770242849267
  0.5002870654275995  0.5004152735925231  0.3676146560746787
  0.5550283390665456  0.7783270556198332  0.3617858427438065
  0.4994318565313023  0.6675600573481830  0.3630516404411139
  0.5550818993930164  0.9449195826894297  0.3600702517845491
  0.4994442127094771  0.8339080021243532  0.3603424723920909
  0.7218079601181770  0.1115245523412582  0.3604288964724134
  0.6662221982736369  0.0004378631379183  0.3606726713145179
  0.7218238694723311  0.2781360141307871  0.3600390426132591
  0.6662487456647739  0.1670735868434932  0.3598634317233120
  0.7219853540610330  0.4447509524784223  0.3609108844160502
  0.6662958729360398  0.3336681289984682  0.3601754175012815
  0.7219743235966192  0.6116064074645067  0.3630914636013500
  0.6665800502376555  0.5002940507847313  0.3623162161822790
  0.7219908610918182  0.7784142634584654  0.3631240109293614
  0.6666996017166227  0.6674308822936084  0.3644112100654482
  0.7217895194843607  0.9448781120504179  0.3615335937272874
  0.6662900810088317  0.8338726078098517  0.3623333101858961
  0.8885059415061960  0.1115470446396003  0.3611931308975826
  0.8329365240345155  0.0004520315608687  0.3615744139357346
  0.8885037493232559  0.2782037741386958  0.3605726431680054
  0.8329103813647478  0.1670819916928110  0.3607922284131035
  0.8884720410798650  0.4448385946531275  0.3603656551945136
  0.8329289981888195  0.3337310675974763  0.3603108156477290
  0.8884749884674008  0.6115237234330309  0.3610357877280421
  0.8330305975209029  0.5004237007624326  0.3607371605439553
  0.8884920456629644  0.7782485715594660  0.3618647272696620
  0.8329073265553362  0.6671055136735902  0.3619692540972537
  0.8885016797826495  0.9449405968901914  0.3617117920003423
  0.8330351962364659  0.8338735204200560  0.3622758257186334
  0.4536724463308772  0.4887022563534913  0.4830693661216472
  0.3444675428379043  0.3431593631082208  0.5733959219244866
 
  0.00000000E+00  0.00000000E+00  0.00000000E+00
  0.00000000E+00  0.00000000E+00  0.00000000E+00
  0.00000000E+00  0.00000000E+00  0.00000000E+00
  0.00000000E+00  0.00000000E+00  0.00000000E+00
  0.00000000E+00  0.00000000E+00  0.00000000E+00
  0.00000000E+00  0.00000000E+00  0.00000000E+00
  0.00000000E+00  0.00000000E+00  0.00000000E+00
  0.00000000E+00  0.00000000E+00  0.00000000E+00
  0.00000000E+00  0.00000000E+00  0.00000000E+00
  0.00000000E+00  0.00000000E+00  0.00000000E+00
  0.00000000E+00  0.00000000E+00  0.00000000E+00
  0.00000000E+00  0.00000000E+00  0.00000000E+00
  0.00000000E+00  0.00000000E+00  0.00000000E+00
  0.00000000E+00  0.00000000E+00  0.00000000E+00
  0.00000000E+00  0.00000000E+00  0.00000000E+00
  0.00000000E+00  0.00000000E+00  0.00000000E+00
  0.00000000E+00  0.00000000E+00  0.00000000E+00
  0.00000000E+00  0.00000000E+00  0.00000000E+00
  0.00000000E+00  0.00000000E+00  0.00000000E+00
  0.00000000E+00  0.00000000E+00  0.00000000E+00
  0.00000000E+00  0.00000000E+00  0.00000000E+00
  0.00000000E+00  0.00000000E+00  0.00000000E+00
  0.00000000E+00  0.00000000E+00  0.00000000E+00
  0.00000000E+00  0.00000000E+00  0.00000000E+00
  0.00000000E+00  0.00000000E+00  0.00000000E+00
  0.00000000E+00  0.00000000E+00  0.00000000E+00
  0.00000000E+00  0.00000000E+00  0.00000000E+00
  0.00000000E+00  0.00000000E+00  0.00000000E+00
  0.00000000E+00  0.00000000E+00  0.00000000E+00
  0.00000000E+00  0.00000000E+00  0.00000000E+00
  0.00000000E+00  0.00000000E+00  0.00000000E+00
  0.00000000E+00  0.00000000E+00  0.00000000E+00
  0.00000000E+00  0.00000000E+00  0.00000000E+00
  0.00000000E+00  0.00000000E+00  0.00000000E+00
  0.00000000E+00  0.00000000E+00  0.00000000E+00
  0.00000000E+00  0.00000000E+00  0.00000000E+00
  0.00000000E+00  0.00000000E+00  0.00000000E+00
  0.00000000E+00  0.00000000E+00  0.00000000E+00
  0.00000000E+00  0.00000000E+00  0.00000000E+00
  0.00000000E+00  0.00000000E+00  0.00000000E+00
  0.00000000E+00  0.00000000E+00  0.00000000E+00
  0.00000000E+00  0.00000000E+00  0.00000000E+00
  0.00000000E+00  0.00000000E+00  0.00000000E+00
  0.00000000E+00  0.00000000E+00  0.00000000E+00
  0.00000000E+00  0.00000000E+00  0.00000000E+00
  0.00000000E+00  0.00000000E+00  0.00000000E+00
  0.00000000E+00  0.00000000E+00  0.00000000E+00
  0.00000000E+00  0.00000000E+00  0.00000000E+00
  0.00000000E+00  0.00000000E+00  0.00000000E+00
  0.00000000E+00  0.00000000E+00  0.00000000E+00
  0.00000000E+00  0.00000000E+00  0.00000000E+00
  0.00000000E+00  0.00000000E+00  0.00000000E+00
  0.00000000E+00  0.00000000E+00  0.00000000E+00
  0.00000000E+00  0.00000000E+00  0.00000000E+00
  0.00000000E+00  0.00000000E+00  0.00000000E+00
  0.00000000E+00  0.00000000E+00  0.00000000E+00
  0.00000000E+00  0.00000000E+00  0.00000000E+00
  0.00000000E+00  0.00000000E+00  0.00000000E+00
  0.00000000E+00  0.00000000E+00  0.00000000E+00
  0.00000000E+00  0.00000000E+00  0.00000000E+00
  0.00000000E+00  0.00000000E+00  0.00000000E+00
  0.00000000E+00  0.00000000E+00  0.00000000E+00
  0.00000000E+00  0.00000000E+00  0.00000000E+00
  0.00000000E+00  0.00000000E+00  0.00000000E+00
  0.00000000E+00  0.00000000E+00  0.00000000E+00
  0.00000000E+00  0.00000000E+00  0.00000000E+00
  0.00000000E+00  0.00000000E+00  0.00000000E+00
  0.00000000E+00  0.00000000E+00  0.00000000E+00
  0.00000000E+00  0.00000000E+00  0.00000000E+00
  0.00000000E+00  0.00000000E+00  0.00000000E+00
  0.00000000E+00  0.00000000E+00  0.00000000E+00
  0.00000000E+00  0.00000000E+00  0.00000000E+00
  0.00000000E+00  0.00000000E+00  0.00000000E+00
  0.00000000E+00  0.00000000E+00  0.00000000E+00
