C4                                      
   1.00000000000000     
    14.8063199999999995    0.0000000000000000    0.0000000000000000
    -7.4031599999999997   12.8226492600000004    0.0000000000000000
     0.0000000000000000    0.0000000000000000   17.0000000000000000
   C    Au
    72     3
Direct
  0.0553548703385758  0.1108614634978409  0.3836195513140126
  0.9998826494250252  0.9998276610702348  0.3829950316461677
  0.0554325543221381  0.2776576164740732  0.3842669530949507
  0.9998931786566061  0.1665008974470013  0.3835015296690472
  0.0553321621699538  0.4443441591436184  0.3839344322528362
  0.9998907675377779  0.3332580815026631  0.3836868409279504
  0.0554513623619997  0.6110187340734683  0.3830897758639580
  0.9998723743709661  0.4999286604522482  0.3831997090710431
  0.0554829860014721  0.7776760188907375  0.3825426521774205
  0.9999422942439864  0.6665761392655014  0.3826945115067417
  0.0554565840387085  0.9442937264339264  0.3828668515210580
  0.9999438768261655  0.8332090069281364  0.3826116297767328
  0.2220789420630780  0.1108442584269795  0.3843952004892870
  0.1665429220996657  0.9997864722832261  0.3832717900115412
  0.2217302455053058  0.2772038993474126  0.3866880793203933
  0.1663924054562713  0.1662491977572458  0.3847358976244024
  0.2215260886353221  0.4442739824498858  0.3873859095629655
  0.1663803330817260  0.3331520125966634  0.3860734370550958
  0.2220645060817077  0.6111103574496823  0.3850279988230625
  0.1663580329720560  0.4999769524195798  0.3853376077810537
  0.2221601965122062  0.7777108052307966  0.3830701429213050
  0.1665730498713316  0.6665969794905138  0.3836397237881570
  0.2221510054126838  0.9443057998885465  0.3828842501765308
  0.1665766226038983  0.8332107601044072  0.3826169211127279
  0.3888184600562568  0.1108616716844395  0.3836678666067783
  0.3332592680238875  0.9998256916755963  0.3830133713173112
  0.3887965578787060  0.2772077024893633  0.3867519860070203
  0.3331694913798060  0.1662521667334573  0.3847833508075595
  0.3887815329274105  0.4441887976624415  0.3947246433224336
  0.3325877837697817  0.3318387833075391  0.3895909757362404
  0.3888698509274420  0.6116149449214490  0.3875023394409070
  0.3325996154383262  0.5005020590699303  0.3910376696426923
  0.3888321712007112  0.7778452194490626  0.3839255843469118
  0.3331965520441571  0.6667981232593547  0.3853632746316293
  0.3888486229565231  0.9443718655179723  0.3828447718652583
  0.3332588158585708  0.8333045799119176  0.3831622015905012
  0.5554902969300528  0.1110092777082627  0.3827807322811339
  0.4999163111052383  0.9999088119163488  0.3827149048959981
  0.5555083215744645  0.2776671455700139  0.3843515166542062
  0.4999157980069171  0.1665026211118530  0.3835673388954106
  0.5560433448614290  0.4442935949375055  0.3874056869857228
  0.5000697275143864  0.3331679804107637  0.3861617102201436
  0.5560447576589169  0.6115801180359668  0.3874359633552018
  0.5012389375374013  0.5005126009999472  0.3909173319591446
  0.5555259172646885  0.7777658484550543  0.3843699466841173
  0.5000503539827790  0.6667956588794581  0.3863444904751603
  0.5554986025095019  0.9443897909833510  0.3828030893034793
  0.4999243938073050  0.8333041850247938  0.3836734591180502
  0.7221720788282084  0.1110349987618449  0.3822815476151149
  0.6666113858518159  0.9999245532279275  0.3824972622652538
  0.7221961577546097  0.2776817037368104  0.3828560089185160
  0.6666186693638068  0.1665702201779453  0.3825222903161958
  0.7223282177215324  0.4443624043101693  0.3839543831029530
  0.6666749458443206  0.3332610535042875  0.3837377736616645
  0.7223512003298964  0.6111072644391555  0.3849987027866106
  0.6669185567330445  0.4999827606949125  0.3853464636045416
  0.7223266779707842  0.7778313892620048  0.3838940537149398
  0.6669039702232880  0.6667805603613957  0.3853156372312299
  0.7222016553211716  0.9443995713191100  0.3827891037082836
  0.6666825216955843  0.8333030900493412  0.3836546130491385
  0.8888293960457787  0.1110083296011410  0.3827417045118082
  0.8333057542410600  0.9999094031033593  0.3826741084737648
  0.8888111323393559  0.2776913676793029  0.3828309237543195
  0.8332699050455972  0.1665809294756357  0.3824964339680577
  0.8888347486516466  0.4443526879353570  0.3829257965913015
  0.8332908330519047  0.3332615999175133  0.3827669381919705
  0.8888818084225960  0.6110215353338262  0.3830845887948300
  0.8333772143077312  0.4999314193165674  0.3832007018681054
  0.8888792211427159  0.7777175836759085  0.3830447481183299
  0.8333454500284816  0.6666074095694796  0.3836201129540413
  0.8888388095198962  0.9443729591515932  0.3828173295208543
  0.8333665902241734  0.8333038312170800  0.3831369569916347
  0.2936161597231290  0.4451456668789575  0.6583001469519871
  0.4771036959082053  0.4449016106009225  0.6605319424661715
  0.3908879179063405  0.4514274543582673  0.5273005432370397
 
  0.00000000E+00  0.00000000E+00  0.00000000E+00
  0.00000000E+00  0.00000000E+00  0.00000000E+00
  0.00000000E+00  0.00000000E+00  0.00000000E+00
  0.00000000E+00  0.00000000E+00  0.00000000E+00
  0.00000000E+00  0.00000000E+00  0.00000000E+00
  0.00000000E+00  0.00000000E+00  0.00000000E+00
  0.00000000E+00  0.00000000E+00  0.00000000E+00
  0.00000000E+00  0.00000000E+00  0.00000000E+00
  0.00000000E+00  0.00000000E+00  0.00000000E+00
  0.00000000E+00  0.00000000E+00  0.00000000E+00
  0.00000000E+00  0.00000000E+00  0.00000000E+00
  0.00000000E+00  0.00000000E+00  0.00000000E+00
  0.00000000E+00  0.00000000E+00  0.00000000E+00
  0.00000000E+00  0.00000000E+00  0.00000000E+00
  0.00000000E+00  0.00000000E+00  0.00000000E+00
  0.00000000E+00  0.00000000E+00  0.00000000E+00
  0.00000000E+00  0.00000000E+00  0.00000000E+00
  0.00000000E+00  0.00000000E+00  0.00000000E+00
  0.00000000E+00  0.00000000E+00  0.00000000E+00
  0.00000000E+00  0.00000000E+00  0.00000000E+00
  0.00000000E+00  0.00000000E+00  0.00000000E+00
  0.00000000E+00  0.00000000E+00  0.00000000E+00
  0.00000000E+00  0.00000000E+00  0.00000000E+00
  0.00000000E+00  0.00000000E+00  0.00000000E+00
  0.00000000E+00  0.00000000E+00  0.00000000E+00
  0.00000000E+00  0.00000000E+00  0.00000000E+00
  0.00000000E+00  0.00000000E+00  0.00000000E+00
  0.00000000E+00  0.00000000E+00  0.00000000E+00
  0.00000000E+00  0.00000000E+00  0.00000000E+00
  0.00000000E+00  0.00000000E+00  0.00000000E+00
  0.00000000E+00  0.00000000E+00  0.00000000E+00
  0.00000000E+00  0.00000000E+00  0.00000000E+00
  0.00000000E+00  0.00000000E+00  0.00000000E+00
  0.00000000E+00  0.00000000E+00  0.00000000E+00
  0.00000000E+00  0.00000000E+00  0.00000000E+00
  0.00000000E+00  0.00000000E+00  0.00000000E+00
  0.00000000E+00  0.00000000E+00  0.00000000E+00
  0.00000000E+00  0.00000000E+00  0.00000000E+00
  0.00000000E+00  0.00000000E+00  0.00000000E+00
  0.00000000E+00  0.00000000E+00  0.00000000E+00
  0.00000000E+00  0.00000000E+00  0.00000000E+00
  0.00000000E+00  0.00000000E+00  0.00000000E+00
  0.00000000E+00  0.00000000E+00  0.00000000E+00
  0.00000000E+00  0.00000000E+00  0.00000000E+00
  0.00000000E+00  0.00000000E+00  0.00000000E+00
  0.00000000E+00  0.00000000E+00  0.00000000E+00
  0.00000000E+00  0.00000000E+00  0.00000000E+00
  0.00000000E+00  0.00000000E+00  0.00000000E+00
  0.00000000E+00  0.00000000E+00  0.00000000E+00
  0.00000000E+00  0.00000000E+00  0.00000000E+00
  0.00000000E+00  0.00000000E+00  0.00000000E+00
  0.00000000E+00  0.00000000E+00  0.00000000E+00
  0.00000000E+00  0.00000000E+00  0.00000000E+00
  0.00000000E+00  0.00000000E+00  0.00000000E+00
  0.00000000E+00  0.00000000E+00  0.00000000E+00
  0.00000000E+00  0.00000000E+00  0.00000000E+00
  0.00000000E+00  0.00000000E+00  0.00000000E+00
  0.00000000E+00  0.00000000E+00  0.00000000E+00
  0.00000000E+00  0.00000000E+00  0.00000000E+00
  0.00000000E+00  0.00000000E+00  0.00000000E+00
  0.00000000E+00  0.00000000E+00  0.00000000E+00
  0.00000000E+00  0.00000000E+00  0.00000000E+00
  0.00000000E+00  0.00000000E+00  0.00000000E+00
  0.00000000E+00  0.00000000E+00  0.00000000E+00
  0.00000000E+00  0.00000000E+00  0.00000000E+00
  0.00000000E+00  0.00000000E+00  0.00000000E+00
  0.00000000E+00  0.00000000E+00  0.00000000E+00
  0.00000000E+00  0.00000000E+00  0.00000000E+00
  0.00000000E+00  0.00000000E+00  0.00000000E+00
  0.00000000E+00  0.00000000E+00  0.00000000E+00
  0.00000000E+00  0.00000000E+00  0.00000000E+00
  0.00000000E+00  0.00000000E+00  0.00000000E+00
  0.00000000E+00  0.00000000E+00  0.00000000E+00
  0.00000000E+00  0.00000000E+00  0.00000000E+00
  0.00000000E+00  0.00000000E+00  0.00000000E+00
