C4                                      
   1.00000000000000     
    14.8063199999999995    0.0000000000000000    0.0000000000000000
    -7.4031599999999997   12.8226492600000004    0.0000000000000000
     0.0000000000000000    0.0000000000000000   18.0000000000000000
   C    Cu   Au
    72     2     2
Direct
  0.0550294527261386  0.1110249754011576  0.3641123018828480
  0.9995098030784106  0.9999119153161118  0.3643473682744371
  0.0551595904762578  0.2777398398967961  0.3631867849951362
  0.9995884357614102  0.1665786405314407  0.3635929877572082
  0.0551475384350866  0.4443909392170227  0.3628065771560074
  0.9996412576982081  0.3333622879808757  0.3628435567686736
  0.0552005320876532  0.6111626208109016  0.3632612835980851
  0.9996442732976050  0.5000177840396631  0.3628138557606633
  0.0552781775134008  0.7778348789428691  0.3641199984345818
  0.9997581147688379  0.6667141254700297  0.3636567674898146
  0.0550982216521945  0.9443607023499254  0.3645141155846545
  0.9996875042266211  0.8333871381799440  0.3643587536328852
  0.2216552915987648  0.1109633707343036  0.3648897752679119
  0.1662114150253160  0.9998954450696687  0.3647638910858646
  0.2216051708931985  0.2776255283109208  0.3640645447938553
  0.1661585696458872  0.1665945389582504  0.3644125916238252
  0.2217094973537073  0.4444618845730801  0.3633067456811503
  0.1661336053475253  0.3332915689281606  0.3633858036101927
  0.2218763615654211  0.6111651592967959  0.3633900074593157
  0.1662777167423357  0.5000063098710044  0.3630757074505127
  0.2218549277918385  0.7777744153480981  0.3640945186338911
  0.1663357274993444  0.6667615129662892  0.3635296370716645
  0.2218105851198899  0.9444743358586294  0.3648730109408334
  0.1663025119293948  0.8333733328719788  0.3643579440745413
  0.3884807271311601  0.1110168611229341  0.3656245845561727
  0.3330127197926345  0.0000973615585664  0.3651782096130489
  0.3874868920671517  0.2772246014830344  0.3664564208189063
  0.3325984942482378  0.1664081523271648  0.3656030604820657
  0.3883520515417445  0.4446092774663342  0.3646051106102917
  0.3326400275044250  0.3331496549925461  0.3648273429243005
  0.3884287027855393  0.6111539792824487  0.3640367017209485
  0.3328419079906908  0.5001323033079430  0.3638139983748303
  0.3884749931423030  0.7778186702646934  0.3641000913819283
  0.3328674309444537  0.6667111054815749  0.3637928662105452
  0.3885804973520308  0.9444628791041794  0.3646731539859047
  0.3329976448556522  0.8333650193461395  0.3642958800586555
  0.5552429208315957  0.1109465501577205  0.3641480732046176
  0.4995797012842900  0.9998932789549073  0.3643435568571789
  0.5557220541208494  0.2772361127172900  0.3655833034005980
  0.4997671926385436  0.1664120751193323  0.3649237282032587
  0.5554754877228660  0.4450419827671581  0.3695909461362348
  0.4993599414113632  0.3327229250539645  0.3696721093439379
  0.5550316614734214  0.6113353829956480  0.3651615347597854
  0.4990925436837159  0.5005249741392745  0.3660540986549421
  0.5552071728651029  0.7778597469985229  0.3644779173510315
  0.4995490189066558  0.6667924017003770  0.3644667432523434
  0.5551597904493093  0.9443632146727765  0.3642451772277724
  0.4996130652691093  0.8333864128529171  0.3643012187514998
  0.7219295782798625  0.1110294468549782  0.3636152614234334
  0.6662978731619162  0.9999110443958870  0.3640563253236380
  0.7219706614408707  0.2776168089417084  0.3631141430681595
  0.6663695980661331  0.1665900178022142  0.3636168869974767
  0.7221930307283131  0.4445931185255532  0.3639146238657816
  0.6664615939615430  0.3331304382918177  0.3637632363723213
  0.7222313610658873  0.6113304630700043  0.3650027289298521
  0.6673368531940369  0.5005073249806458  0.3657526104174096
  0.7218017448221090  0.7776533647657473  0.3650748259672554
  0.6663329916401537  0.6667251169544528  0.3654459877163845
  0.7217964816366020  0.9443832330687059  0.3643261880368271
  0.6662198381297912  0.8332845375914388  0.3647227179571573
  0.8884579425306995  0.1109853793300175  0.3636400885266937
  0.8329511642201908  0.9999785046381930  0.3641750885226642
  0.8885026244657510  0.2777240656921620  0.3628318012932183
  0.8329195527801332  0.1665764524774005  0.3632774933691607
  0.8886869146255805  0.4444633566518590  0.3627357459101717
  0.8331018190375445  0.3332886100783483  0.3627131106756778
  0.8886467921078136  0.6111501753241555  0.3637219414159816
  0.8332262655613079  0.5001283989639234  0.3632340783223782
  0.8885754862040969  0.7778360908392585  0.3644122536050176
  0.8331637710250277  0.6667792103548891  0.3642445829825363
  0.8884989820292404  0.9443720363921031  0.3644134163226056
  0.8329989364767556  0.8332700813179983  0.3647097757086613
  0.5301006268939048  0.3899266272882969  0.4827183871042777
  0.5397751931085537  0.3913313158893459  0.6136249807010898
  0.4603981468022980  0.2191979909081638  0.5564724808957493
  0.6105553337565510  0.5622887238194210  0.5557407516589805
 
  0.00000000E+00  0.00000000E+00  0.00000000E+00
  0.00000000E+00  0.00000000E+00  0.00000000E+00
  0.00000000E+00  0.00000000E+00  0.00000000E+00
  0.00000000E+00  0.00000000E+00  0.00000000E+00
  0.00000000E+00  0.00000000E+00  0.00000000E+00
  0.00000000E+00  0.00000000E+00  0.00000000E+00
  0.00000000E+00  0.00000000E+00  0.00000000E+00
  0.00000000E+00  0.00000000E+00  0.00000000E+00
  0.00000000E+00  0.00000000E+00  0.00000000E+00
  0.00000000E+00  0.00000000E+00  0.00000000E+00
  0.00000000E+00  0.00000000E+00  0.00000000E+00
  0.00000000E+00  0.00000000E+00  0.00000000E+00
  0.00000000E+00  0.00000000E+00  0.00000000E+00
  0.00000000E+00  0.00000000E+00  0.00000000E+00
  0.00000000E+00  0.00000000E+00  0.00000000E+00
  0.00000000E+00  0.00000000E+00  0.00000000E+00
  0.00000000E+00  0.00000000E+00  0.00000000E+00
  0.00000000E+00  0.00000000E+00  0.00000000E+00
  0.00000000E+00  0.00000000E+00  0.00000000E+00
  0.00000000E+00  0.00000000E+00  0.00000000E+00
  0.00000000E+00  0.00000000E+00  0.00000000E+00
  0.00000000E+00  0.00000000E+00  0.00000000E+00
  0.00000000E+00  0.00000000E+00  0.00000000E+00
  0.00000000E+00  0.00000000E+00  0.00000000E+00
  0.00000000E+00  0.00000000E+00  0.00000000E+00
  0.00000000E+00  0.00000000E+00  0.00000000E+00
  0.00000000E+00  0.00000000E+00  0.00000000E+00
  0.00000000E+00  0.00000000E+00  0.00000000E+00
  0.00000000E+00  0.00000000E+00  0.00000000E+00
  0.00000000E+00  0.00000000E+00  0.00000000E+00
  0.00000000E+00  0.00000000E+00  0.00000000E+00
  0.00000000E+00  0.00000000E+00  0.00000000E+00
  0.00000000E+00  0.00000000E+00  0.00000000E+00
  0.00000000E+00  0.00000000E+00  0.00000000E+00
  0.00000000E+00  0.00000000E+00  0.00000000E+00
  0.00000000E+00  0.00000000E+00  0.00000000E+00
  0.00000000E+00  0.00000000E+00  0.00000000E+00
  0.00000000E+00  0.00000000E+00  0.00000000E+00
  0.00000000E+00  0.00000000E+00  0.00000000E+00
  0.00000000E+00  0.00000000E+00  0.00000000E+00
  0.00000000E+00  0.00000000E+00  0.00000000E+00
  0.00000000E+00  0.00000000E+00  0.00000000E+00
  0.00000000E+00  0.00000000E+00  0.00000000E+00
  0.00000000E+00  0.00000000E+00  0.00000000E+00
  0.00000000E+00  0.00000000E+00  0.00000000E+00
  0.00000000E+00  0.00000000E+00  0.00000000E+00
  0.00000000E+00  0.00000000E+00  0.00000000E+00
  0.00000000E+00  0.00000000E+00  0.00000000E+00
  0.00000000E+00  0.00000000E+00  0.00000000E+00
  0.00000000E+00  0.00000000E+00  0.00000000E+00
  0.00000000E+00  0.00000000E+00  0.00000000E+00
  0.00000000E+00  0.00000000E+00  0.00000000E+00
  0.00000000E+00  0.00000000E+00  0.00000000E+00
  0.00000000E+00  0.00000000E+00  0.00000000E+00
  0.00000000E+00  0.00000000E+00  0.00000000E+00
  0.00000000E+00  0.00000000E+00  0.00000000E+00
  0.00000000E+00  0.00000000E+00  0.00000000E+00
  0.00000000E+00  0.00000000E+00  0.00000000E+00
  0.00000000E+00  0.00000000E+00  0.00000000E+00
  0.00000000E+00  0.00000000E+00  0.00000000E+00
  0.00000000E+00  0.00000000E+00  0.00000000E+00
  0.00000000E+00  0.00000000E+00  0.00000000E+00
  0.00000000E+00  0.00000000E+00  0.00000000E+00
  0.00000000E+00  0.00000000E+00  0.00000000E+00
  0.00000000E+00  0.00000000E+00  0.00000000E+00
  0.00000000E+00  0.00000000E+00  0.00000000E+00
  0.00000000E+00  0.00000000E+00  0.00000000E+00
  0.00000000E+00  0.00000000E+00  0.00000000E+00
  0.00000000E+00  0.00000000E+00  0.00000000E+00
  0.00000000E+00  0.00000000E+00  0.00000000E+00
  0.00000000E+00  0.00000000E+00  0.00000000E+00
  0.00000000E+00  0.00000000E+00  0.00000000E+00
  0.00000000E+00  0.00000000E+00  0.00000000E+00
  0.00000000E+00  0.00000000E+00  0.00000000E+00
  0.00000000E+00  0.00000000E+00  0.00000000E+00
  0.00000000E+00  0.00000000E+00  0.00000000E+00
