iC4                                     
   1.00000000000000     
    14.8063199999999995    0.0000000000000000    0.0000000000000000
    -7.4031599999999997   12.8226492600000004    0.0000000000000000
     0.0000000000000000    0.0000000000000000   17.0000000000000000
   C    Ag
    72     3
Direct
  0.0555088483342274  0.1110795753885299  0.3837072499379275
  0.0000467616657716  0.0000317846114726  0.3837072499379275
  0.0554740280505897  0.2777326222214427  0.3837091794693492
  0.9999604030845290  0.1666310444392067  0.3837005889459206
  0.0554975299042511  0.4444188596117797  0.3831797726772095
  0.9999569939845330  0.3333017964018481  0.3833917234941993
  0.0555513407192052  0.6110992208308730  0.3829825078430673
  0.0000042992807963  0.5000121991691273  0.3829825078430673
  0.0555986060154652  0.7778095435981527  0.3833917234941993
  0.0000581200957512  0.6666925603882206  0.3831797726772095
  0.0555951969154691  0.9444802955607940  0.3837005889459206
  0.0000815719494085  0.8333787177785652  0.3837091794693492
  0.2221885568474562  0.1110873435653303  0.3840904536983274
  0.1666767692041020  0.0000081035402317  0.3837640807229121
  0.2220154515568922  0.2776191557581953  0.3842615716452613
  0.1665739092187195  0.1665651955628533  0.3839634350255210
  0.2220191074986815  0.4443701428207945  0.3839075643567682
  0.1665437705624555  0.3332520923194053  0.3840288584190930
  0.2221088673666998  0.6111072565353055  0.3834566951315566
  0.1665479606208606  0.4999940694555818  0.3834264554238160
  0.2222135717846427  0.7778037743241981  0.3834030523166376
  0.1666341293495464  0.6666863580932940  0.3831820999600808
  0.2222409464747344  0.9444698268858289  0.3836762849565361
  0.1666857758952318  0.8333764294452379  0.3834103519868464
  0.3889093267515378  0.1110893675471232  0.3840999505396709
  0.3333342536574122  0.0000097893167990  0.3837694143162267
  0.3888196338308987  0.2776593429680787  0.3850650159319855
  0.3333126962756623  0.1666249516250957  0.3844885639211171
  0.3881092216192314  0.4439664648311279  0.3861046150087404
  0.3330287124972884  0.3330206543480188  0.3850522333788078
  0.3886500278860296  0.6111758747939717  0.3847890298320777
  0.3329868363084003  0.4999028581702376  0.3846622534478357
  0.3888514622265618  0.7778473078161312  0.3840616905650336
  0.3331982593118994  0.6667361346089180  0.3840157484092970
  0.3888884634801428  0.9444773336864500  0.3837010870698876
  0.3332928417173875  0.8333757054304698  0.3837163082204995
  0.5555759528306510  0.1110843438346905  0.3837121544190865
  0.4999796571693480  0.0000270161653120  0.3837121544190865
  0.5556015086024502  0.2776252050760633  0.3843063424911861
  0.4999898787720269  0.1665667640002653  0.3839766638537156
  0.5558441305327904  0.4439814940595141  0.3861641579547026
  0.4999818972289987  0.3330391408978386  0.3851433149284986
  0.5558624236338687  0.6116654483108732  0.3884569838844243
  0.4996932163661327  0.4994459716891271  0.3884569838844243
  0.5555737027709995  0.7780721991021622  0.3851433149284986
  0.4997115194672119  0.6671299259404861  0.3861641579547026
  0.5555657212279712  0.9445445759997355  0.3839766638537156
  0.4999540913975480  0.8334861349239375  0.3843063424911861
  0.7222213563425868  0.1111015706832035  0.3837694143162267
  0.6666462932484620  0.0000219924528793  0.3840999505396709
  0.7222627582826178  0.2777356345695310  0.3837163082204995
  0.6666671365198553  0.1666340063135507  0.3837010870698876
  0.7223573806881021  0.4443752853910823  0.3840157484092970
  0.6667041377734435  0.3332640321838696  0.3840616905650336
  0.7225688036915940  0.6112085618297627  0.3846622534478357
  0.6669056121139718  0.4999355452060286  0.3847890298320777
  0.7225268975027035  0.7780906856519820  0.3850522333788078
  0.6674464183807629  0.6671449551688724  0.3861046150087404
  0.7222429137243367  0.9444863883749051  0.3844885639211171
  0.6667359661690995  0.8334519970319221  0.3850650159319855
  0.8888788507959049  0.1111032564597707  0.3837640807229121
  0.8333670531525428  0.0000240164346721  0.3840904536983274
  0.8888698241047663  0.2777349105547700  0.3834103519868464
  0.8333146635252646  0.1666415131141719  0.3836762849565361
  0.8889215106504480  0.4444250619066992  0.3831820999600808
  0.8333420382153562  0.3333075656758027  0.3834030523166376
  0.8890076793791408  0.6111173505444185  0.3834264554238160
  0.8334467726332946  0.5000041634646948  0.3834566951315566
  0.8890118294375497  0.7778592476805883  0.3840288584190930
  0.8335365325013200  0.6667412771792058  0.3839075643567682
  0.8889816907812715  0.9445461444371475  0.3839634350255210
  0.8335401484431131  0.8334921842418055  0.3842615716452613
  0.5277778199999972  0.5555556300000006  0.5285332660598385
  0.4357194666580213  0.4603064971005750  0.6614804927863389
  0.6198361633419793  0.6508047628994262  0.6614804927863389
 
  0.00000000E+00  0.00000000E+00  0.00000000E+00
  0.00000000E+00  0.00000000E+00  0.00000000E+00
  0.00000000E+00  0.00000000E+00  0.00000000E+00
  0.00000000E+00  0.00000000E+00  0.00000000E+00
  0.00000000E+00  0.00000000E+00  0.00000000E+00
  0.00000000E+00  0.00000000E+00  0.00000000E+00
  0.00000000E+00  0.00000000E+00  0.00000000E+00
  0.00000000E+00  0.00000000E+00  0.00000000E+00
  0.00000000E+00  0.00000000E+00  0.00000000E+00
  0.00000000E+00  0.00000000E+00  0.00000000E+00
  0.00000000E+00  0.00000000E+00  0.00000000E+00
  0.00000000E+00  0.00000000E+00  0.00000000E+00
  0.00000000E+00  0.00000000E+00  0.00000000E+00
  0.00000000E+00  0.00000000E+00  0.00000000E+00
  0.00000000E+00  0.00000000E+00  0.00000000E+00
  0.00000000E+00  0.00000000E+00  0.00000000E+00
  0.00000000E+00  0.00000000E+00  0.00000000E+00
  0.00000000E+00  0.00000000E+00  0.00000000E+00
  0.00000000E+00  0.00000000E+00  0.00000000E+00
  0.00000000E+00  0.00000000E+00  0.00000000E+00
  0.00000000E+00  0.00000000E+00  0.00000000E+00
  0.00000000E+00  0.00000000E+00  0.00000000E+00
  0.00000000E+00  0.00000000E+00  0.00000000E+00
  0.00000000E+00  0.00000000E+00  0.00000000E+00
  0.00000000E+00  0.00000000E+00  0.00000000E+00
  0.00000000E+00  0.00000000E+00  0.00000000E+00
  0.00000000E+00  0.00000000E+00  0.00000000E+00
  0.00000000E+00  0.00000000E+00  0.00000000E+00
  0.00000000E+00  0.00000000E+00  0.00000000E+00
  0.00000000E+00  0.00000000E+00  0.00000000E+00
  0.00000000E+00  0.00000000E+00  0.00000000E+00
  0.00000000E+00  0.00000000E+00  0.00000000E+00
  0.00000000E+00  0.00000000E+00  0.00000000E+00
  0.00000000E+00  0.00000000E+00  0.00000000E+00
  0.00000000E+00  0.00000000E+00  0.00000000E+00
  0.00000000E+00  0.00000000E+00  0.00000000E+00
  0.00000000E+00  0.00000000E+00  0.00000000E+00
  0.00000000E+00  0.00000000E+00  0.00000000E+00
  0.00000000E+00  0.00000000E+00  0.00000000E+00
  0.00000000E+00  0.00000000E+00  0.00000000E+00
  0.00000000E+00  0.00000000E+00  0.00000000E+00
  0.00000000E+00  0.00000000E+00  0.00000000E+00
  0.00000000E+00  0.00000000E+00  0.00000000E+00
  0.00000000E+00  0.00000000E+00  0.00000000E+00
  0.00000000E+00  0.00000000E+00  0.00000000E+00
  0.00000000E+00  0.00000000E+00  0.00000000E+00
  0.00000000E+00  0.00000000E+00  0.00000000E+00
  0.00000000E+00  0.00000000E+00  0.00000000E+00
  0.00000000E+00  0.00000000E+00  0.00000000E+00
  0.00000000E+00  0.00000000E+00  0.00000000E+00
  0.00000000E+00  0.00000000E+00  0.00000000E+00
  0.00000000E+00  0.00000000E+00  0.00000000E+00
  0.00000000E+00  0.00000000E+00  0.00000000E+00
  0.00000000E+00  0.00000000E+00  0.00000000E+00
  0.00000000E+00  0.00000000E+00  0.00000000E+00
  0.00000000E+00  0.00000000E+00  0.00000000E+00
  0.00000000E+00  0.00000000E+00  0.00000000E+00
  0.00000000E+00  0.00000000E+00  0.00000000E+00
  0.00000000E+00  0.00000000E+00  0.00000000E+00
  0.00000000E+00  0.00000000E+00  0.00000000E+00
  0.00000000E+00  0.00000000E+00  0.00000000E+00
  0.00000000E+00  0.00000000E+00  0.00000000E+00
  0.00000000E+00  0.00000000E+00  0.00000000E+00
  0.00000000E+00  0.00000000E+00  0.00000000E+00
  0.00000000E+00  0.00000000E+00  0.00000000E+00
  0.00000000E+00  0.00000000E+00  0.00000000E+00
  0.00000000E+00  0.00000000E+00  0.00000000E+00
  0.00000000E+00  0.00000000E+00  0.00000000E+00
  0.00000000E+00  0.00000000E+00  0.00000000E+00
  0.00000000E+00  0.00000000E+00  0.00000000E+00
  0.00000000E+00  0.00000000E+00  0.00000000E+00
  0.00000000E+00  0.00000000E+00  0.00000000E+00
  0.00000000E+00  0.00000000E+00  0.00000000E+00
  0.00000000E+00  0.00000000E+00  0.00000000E+00
  0.00000000E+00  0.00000000E+00  0.00000000E+00
