C4                                      
   1.00000000000000     
    14.8063199999999995    0.0000000000000000    0.0000000000000000
    -7.4031599999999997   12.8226492600000004    0.0000000000000000
     0.0000000000000000    0.0000000000000000   17.0000000000000000
   C    Cu
    72     3
Direct
  0.0558492141240947  0.1112623955158298  0.3826467611489406
  0.0005273788613636  0.0002546553557110  0.3829836499466595
  0.0558563854983802  0.2779403111545733  0.3816403342467609
  0.0004534253715391  0.1668792331495439  0.3822124763537573
  0.0559024527666026  0.4446444524249884  0.3813805145295532
  0.0004689029838403  0.3335933054021325  0.3815454217784691
  0.0559617313340937  0.6113201989355090  0.3814923988653973
  0.0005248814665251  0.5002781633459179  0.3812920427448674
  0.0559739412273217  0.7780153525535241  0.3821857234613759
  0.0005619630461453  0.6669538418423357  0.3815125762153428
  0.0559222444346474  0.9446440274938084  0.3830091750352977
  0.0005869703207750  0.8336297319219383  0.3825550316700728
  0.2222374403269001  0.1110081341312110  0.3839091933903376
  0.1669992208062254  0.0000630524412273  0.3835488414078156
  0.2221130552500625  0.2776914674360427  0.3822386465640761
  0.1668606189947539  0.1666658518500839  0.3829209856615776
  0.2223561209056584  0.4446665262516234  0.3816104851416000
  0.1669027883133509  0.3335143185145100  0.3815150600792450
  0.2224049610080101  0.6113595876954676  0.3821664206484172
  0.1669913096155184  0.5003465988648230  0.3815974525247299
  0.2225621701329175  0.7780258038994035  0.3828998399864929
  0.1670354790871258  0.6669664999839284  0.3820925435868787
  0.2225457673451032  0.9446085979347245  0.3837719640229480
  0.1671243421509345  0.8335919856204939  0.3828723867728527
  0.3891451787264657  0.1110199536232486  0.3857092349418707
  0.3337390424519455  0.0001966157930084  0.3846979793297010
  0.3880408089625149  0.2770957831376251  0.3862768777835868
  0.3333078748838929  0.1663682565428175  0.3854045084798869
  0.3881544896014901  0.4442171898018401  0.3834060069825682
  0.3330584064177771  0.3330995912511199  0.3833767592829034
  0.3888948846228146  0.6116061792021625  0.3842576128094635
  0.3333109657832125  0.5002499017133104  0.3825608128626001
  0.3892271828757785  0.7781822829996869  0.3842318159977722
  0.3335490511876387  0.6670995446168320  0.3834312426986557
  0.3893032723424810  0.9446471849025713  0.3844848799058624
  0.3337376760217197  0.8336965269147782  0.3838330904749512
  0.5561422739167057  0.1110857943360486  0.3848212729340048
  0.5004680204329546  0.0001298993803687  0.3846662980228075
  0.5565090636568755  0.2770313886921727  0.3869056920812710
  0.5005162966779579  0.1663497031980654  0.3859252588855213
  0.5567946194781754  0.4448660037455738  0.3870992802930076
  0.5001079178718513  0.3324904589020434  0.3895908727707820
  0.5563120543774716  0.6124066486798299  0.3898979757705305
  0.4996374647516078  0.5000526702258128  0.3873101781777919
  0.5559134163168054  0.7785333015660427  0.3861278706548745
  0.4999182108970643  0.6678658731189557  0.3872374565321053
  0.5560158446561729  0.9447917439557045  0.3846788163796759
  0.5003103689803012  0.8338258560812335  0.3850018479791828
  0.7227253097863411  0.1112298467937478  0.3836556499169674
  0.6671663254320350  0.0002779933295258  0.3843895882119241
  0.7228971322537774  0.2778217595477699  0.3831568380019448
  0.6672266863141658  0.1667411633475098  0.3840088165753528
  0.7231284124783741  0.4446884705862786  0.3822013412850680
  0.6675619619255571  0.3333283616932476  0.3839157916395521
  0.7233603392578232  0.6118198321897736  0.3831396778988605
  0.6682610347988529  0.5007029388054178  0.3831042362378341
  0.7231242972384280  0.7785288973589104  0.3852899685582472
  0.6683769481238855  0.6678055508698009  0.3862310373658460
  0.7227202839279201  0.9447169235600867  0.3845676504457174
  0.6672907411980660  0.8338870255637403  0.3857051633212620
  0.8893181806321167  0.1113089345694931  0.3827570059847574
  0.8339149982258007  0.0003063184667269  0.3835859839169160
  0.8894028593346519  0.2779475858276825  0.3819765145140366
  0.8338942044726210  0.1668854676598670  0.3827371902378687
  0.8894397285572992  0.4445825017959635  0.3813996529900336
  0.8340350166450534  0.3335673765218345  0.3819666096108207
  0.8895274118669363  0.6114080586867630  0.3812588406417987
  0.8340877296594016  0.5002721157245631  0.3813057651002438
  0.8895715597164084  0.7782363691474856  0.3827002555660002
  0.8343140271167613  0.6672140490515730  0.3819614455887006
  0.8894524140285753  0.9448443275026648  0.3833689819685873
  0.8341992251040011  0.8338942733795776  0.3836961289820167
  0.5364116998106851  0.5572219488912751  0.5088159715781160
  0.5207915274651498  0.3870430307410047  0.5084728926048143
  0.5305586133657698  0.4724828522875200  0.6251407534418973
 
  0.00000000E+00  0.00000000E+00  0.00000000E+00
  0.00000000E+00  0.00000000E+00  0.00000000E+00
  0.00000000E+00  0.00000000E+00  0.00000000E+00
  0.00000000E+00  0.00000000E+00  0.00000000E+00
  0.00000000E+00  0.00000000E+00  0.00000000E+00
  0.00000000E+00  0.00000000E+00  0.00000000E+00
  0.00000000E+00  0.00000000E+00  0.00000000E+00
  0.00000000E+00  0.00000000E+00  0.00000000E+00
  0.00000000E+00  0.00000000E+00  0.00000000E+00
  0.00000000E+00  0.00000000E+00  0.00000000E+00
  0.00000000E+00  0.00000000E+00  0.00000000E+00
  0.00000000E+00  0.00000000E+00  0.00000000E+00
  0.00000000E+00  0.00000000E+00  0.00000000E+00
  0.00000000E+00  0.00000000E+00  0.00000000E+00
  0.00000000E+00  0.00000000E+00  0.00000000E+00
  0.00000000E+00  0.00000000E+00  0.00000000E+00
  0.00000000E+00  0.00000000E+00  0.00000000E+00
  0.00000000E+00  0.00000000E+00  0.00000000E+00
  0.00000000E+00  0.00000000E+00  0.00000000E+00
  0.00000000E+00  0.00000000E+00  0.00000000E+00
  0.00000000E+00  0.00000000E+00  0.00000000E+00
  0.00000000E+00  0.00000000E+00  0.00000000E+00
  0.00000000E+00  0.00000000E+00  0.00000000E+00
  0.00000000E+00  0.00000000E+00  0.00000000E+00
  0.00000000E+00  0.00000000E+00  0.00000000E+00
  0.00000000E+00  0.00000000E+00  0.00000000E+00
  0.00000000E+00  0.00000000E+00  0.00000000E+00
  0.00000000E+00  0.00000000E+00  0.00000000E+00
  0.00000000E+00  0.00000000E+00  0.00000000E+00
  0.00000000E+00  0.00000000E+00  0.00000000E+00
  0.00000000E+00  0.00000000E+00  0.00000000E+00
  0.00000000E+00  0.00000000E+00  0.00000000E+00
  0.00000000E+00  0.00000000E+00  0.00000000E+00
  0.00000000E+00  0.00000000E+00  0.00000000E+00
  0.00000000E+00  0.00000000E+00  0.00000000E+00
  0.00000000E+00  0.00000000E+00  0.00000000E+00
  0.00000000E+00  0.00000000E+00  0.00000000E+00
  0.00000000E+00  0.00000000E+00  0.00000000E+00
  0.00000000E+00  0.00000000E+00  0.00000000E+00
  0.00000000E+00  0.00000000E+00  0.00000000E+00
  0.00000000E+00  0.00000000E+00  0.00000000E+00
  0.00000000E+00  0.00000000E+00  0.00000000E+00
  0.00000000E+00  0.00000000E+00  0.00000000E+00
  0.00000000E+00  0.00000000E+00  0.00000000E+00
  0.00000000E+00  0.00000000E+00  0.00000000E+00
  0.00000000E+00  0.00000000E+00  0.00000000E+00
  0.00000000E+00  0.00000000E+00  0.00000000E+00
  0.00000000E+00  0.00000000E+00  0.00000000E+00
  0.00000000E+00  0.00000000E+00  0.00000000E+00
  0.00000000E+00  0.00000000E+00  0.00000000E+00
  0.00000000E+00  0.00000000E+00  0.00000000E+00
  0.00000000E+00  0.00000000E+00  0.00000000E+00
  0.00000000E+00  0.00000000E+00  0.00000000E+00
  0.00000000E+00  0.00000000E+00  0.00000000E+00
  0.00000000E+00  0.00000000E+00  0.00000000E+00
  0.00000000E+00  0.00000000E+00  0.00000000E+00
  0.00000000E+00  0.00000000E+00  0.00000000E+00
  0.00000000E+00  0.00000000E+00  0.00000000E+00
  0.00000000E+00  0.00000000E+00  0.00000000E+00
  0.00000000E+00  0.00000000E+00  0.00000000E+00
  0.00000000E+00  0.00000000E+00  0.00000000E+00
  0.00000000E+00  0.00000000E+00  0.00000000E+00
  0.00000000E+00  0.00000000E+00  0.00000000E+00
  0.00000000E+00  0.00000000E+00  0.00000000E+00
  0.00000000E+00  0.00000000E+00  0.00000000E+00
  0.00000000E+00  0.00000000E+00  0.00000000E+00
  0.00000000E+00  0.00000000E+00  0.00000000E+00
  0.00000000E+00  0.00000000E+00  0.00000000E+00
  0.00000000E+00  0.00000000E+00  0.00000000E+00
  0.00000000E+00  0.00000000E+00  0.00000000E+00
  0.00000000E+00  0.00000000E+00  0.00000000E+00
  0.00000000E+00  0.00000000E+00  0.00000000E+00
  0.00000000E+00  0.00000000E+00  0.00000000E+00
  0.00000000E+00  0.00000000E+00  0.00000000E+00
  0.00000000E+00  0.00000000E+00  0.00000000E+00
