C4                                      
   1.00000000000000     
    14.8063199999999995    0.0000000000000000    0.0000000000000000
    -7.4031599999999997   12.8226492600000004    0.0000000000000000
     0.0000000000000000    0.0000000000000000   17.0000000000000000
   C    Cu
    72     3
Direct
  0.0554836676960804  0.1110645274704609  0.3855558757398470
  0.0000719423039186  0.0000468325295415  0.3855558757398470
  0.0554186047765555  0.2777045767142639  0.3851503931017817
  0.9999373009295880  0.1666043219134394  0.3854991470327462
  0.0554754871764374  0.4444169897081451  0.3843148673334582
  0.9999324630853152  0.3332847898876068  0.3848699530783861
  0.0555519084064500  0.6110940111428462  0.3841262091160331
  0.0000037315935515  0.5000174088571612  0.3841262091160331
  0.0556231369146829  0.7778265501123940  0.3848699530783861
  0.0000801628235649  0.6666944302918552  0.3843148673334582
  0.0556182990704031  0.9445070180865613  0.3854991470327462
  0.0001369952234427  0.8334067632857369  0.3851503931017817
  0.2221655024092755  0.1111046479838649  0.3858536129089885
  0.1666852603139475  0.0000431877825378  0.3857360572630029
  0.2219086031197648  0.2775707667764209  0.3854541354433394
  0.1665274822744891  0.1665332826483876  0.3855811248631298
  0.2219313189271901  0.4443441487182653  0.3845893872032136
  0.1664666411994915  0.3332176807745597  0.3850923293692716
  0.2220520804069253  0.6111085295500871  0.3842748436089565
  0.1664767302923877  0.4999880460106851  0.3842123479233237
  0.2222214970703504  0.7778201703529177  0.3849329844606757
  0.1666195336821659  0.6666847232113469  0.3843595436744209
  0.2222523670618841  0.9444923878187552  0.3856944835821068
  0.1667019932550957  0.8333935931857894  0.3852155990594142
  0.3889425382476404  0.1111129334590686  0.3859472664101204
  0.3333582173189100  0.0000473901595370  0.3858190716853827
  0.3888062280169038  0.2776401599952578  0.3862484483069153
  0.3333367355057177  0.1666767998026586  0.3860592612742479
  0.3877437871028206  0.4437954520502245  0.3868517312017730
  0.3329011416367962  0.3329485983890308  0.3860138902443779
  0.3885910923038551  0.6112570385781950  0.3853498234123407
  0.3328294741156341  0.4998219028248769  0.3851507494161908
  0.3888148203481947  0.7778751633911796  0.3852834624241268
  0.3331496566713597  0.6667642224547023  0.3847819788568714
  0.3888985018111271  0.9445079870718587  0.3856373533926387
  0.3332771102419301  0.8334060223033717  0.3852834545951325
  0.5555780577444764  0.1110645666464336  0.3857032386102688
  0.4999775522555225  0.0000467933535688  0.3857032386102688
  0.5556545787872409  0.2775767175683583  0.3856798213626078
  0.5000073553251028  0.1665402631996145  0.3857433300195794
  0.5560152263790883  0.4438048799420926  0.3870102960616535
  0.5000314508029220  0.3329657381575473  0.3862312116655815
  0.5559724016098144  0.6118696812719051  0.3896556390688772
  0.4995832383901870  0.4992417387280952  0.3896556390688772
  0.5555241491970762  0.7781456018424535  0.3862312116655815
  0.4995404236209140  0.6673065400579077  0.3870102960616535
  0.5555482446748954  0.9445710768003863  0.3857433300195794
  0.4999010212127573  0.8335346224316424  0.3856798213626078
  0.7221973926810819  0.1110639698404654  0.3858190716853827
  0.6666130817523594  0.9999984265409338  0.3859472664101204
  0.7222784897580681  0.2777053176966291  0.3852834545951325
  0.6666570981888711  0.1666033529281492  0.3856373533926387
  0.7224059833286418  0.4443471975452979  0.3847819788568714
  0.6667407796518106  0.3332361766088212  0.3852834624241268
  0.7227261658843602  0.6112895171751234  0.3851507494161908
  0.6669645476961463  0.4998543814218053  0.3853498234123407
  0.7226544683632028  0.7781627416109700  0.3860138902443779
  0.6678118528971737  0.6673159679497758  0.3868517312017730
  0.7222188744942812  0.9444345401973422  0.3860592612742479
  0.6667493719830944  0.8334711800047430  0.3862484483069153
  0.8888703596860523  0.1110681722174647  0.3857360572630029
  0.8333901075907235  0.0000067120161376  0.3858536129089885
  0.8888536067449024  0.2777177468142114  0.3852155990594142
  0.8333032429381078  0.1666189521812456  0.3856944835821068
  0.8889361063178285  0.4444266967886534  0.3843595436744209
  0.8333341129296485  0.3332911696470902  0.3849329844606757
  0.8890789097076137  0.6111233739893152  0.3842123479233237
  0.8335035595930691  0.5000028904499132  0.3842748436089565
  0.8890889588005138  0.7778936592254411  0.3850923293692716
  0.8336243210728114  0.6667672712817350  0.3845893872032136
  0.8890281177255090  0.9445780573516132  0.3855811248631298
  0.8336469968802405  0.8335405732235799  0.3854541354433394
  0.5277778199999972  0.5555556300000006  0.5067391474458134
  0.4593843941326199  0.4679818023596809  0.6239420835063640
  0.5961712358673807  0.6431294576403204  0.6239420835063640
 
  0.00000000E+00  0.00000000E+00  0.00000000E+00
  0.00000000E+00  0.00000000E+00  0.00000000E+00
  0.00000000E+00  0.00000000E+00  0.00000000E+00
  0.00000000E+00  0.00000000E+00  0.00000000E+00
  0.00000000E+00  0.00000000E+00  0.00000000E+00
  0.00000000E+00  0.00000000E+00  0.00000000E+00
  0.00000000E+00  0.00000000E+00  0.00000000E+00
  0.00000000E+00  0.00000000E+00  0.00000000E+00
  0.00000000E+00  0.00000000E+00  0.00000000E+00
  0.00000000E+00  0.00000000E+00  0.00000000E+00
  0.00000000E+00  0.00000000E+00  0.00000000E+00
  0.00000000E+00  0.00000000E+00  0.00000000E+00
  0.00000000E+00  0.00000000E+00  0.00000000E+00
  0.00000000E+00  0.00000000E+00  0.00000000E+00
  0.00000000E+00  0.00000000E+00  0.00000000E+00
  0.00000000E+00  0.00000000E+00  0.00000000E+00
  0.00000000E+00  0.00000000E+00  0.00000000E+00
  0.00000000E+00  0.00000000E+00  0.00000000E+00
  0.00000000E+00  0.00000000E+00  0.00000000E+00
  0.00000000E+00  0.00000000E+00  0.00000000E+00
  0.00000000E+00  0.00000000E+00  0.00000000E+00
  0.00000000E+00  0.00000000E+00  0.00000000E+00
  0.00000000E+00  0.00000000E+00  0.00000000E+00
  0.00000000E+00  0.00000000E+00  0.00000000E+00
  0.00000000E+00  0.00000000E+00  0.00000000E+00
  0.00000000E+00  0.00000000E+00  0.00000000E+00
  0.00000000E+00  0.00000000E+00  0.00000000E+00
  0.00000000E+00  0.00000000E+00  0.00000000E+00
  0.00000000E+00  0.00000000E+00  0.00000000E+00
  0.00000000E+00  0.00000000E+00  0.00000000E+00
  0.00000000E+00  0.00000000E+00  0.00000000E+00
  0.00000000E+00  0.00000000E+00  0.00000000E+00
  0.00000000E+00  0.00000000E+00  0.00000000E+00
  0.00000000E+00  0.00000000E+00  0.00000000E+00
  0.00000000E+00  0.00000000E+00  0.00000000E+00
  0.00000000E+00  0.00000000E+00  0.00000000E+00
  0.00000000E+00  0.00000000E+00  0.00000000E+00
  0.00000000E+00  0.00000000E+00  0.00000000E+00
  0.00000000E+00  0.00000000E+00  0.00000000E+00
  0.00000000E+00  0.00000000E+00  0.00000000E+00
  0.00000000E+00  0.00000000E+00  0.00000000E+00
  0.00000000E+00  0.00000000E+00  0.00000000E+00
  0.00000000E+00  0.00000000E+00  0.00000000E+00
  0.00000000E+00  0.00000000E+00  0.00000000E+00
  0.00000000E+00  0.00000000E+00  0.00000000E+00
  0.00000000E+00  0.00000000E+00  0.00000000E+00
  0.00000000E+00  0.00000000E+00  0.00000000E+00
  0.00000000E+00  0.00000000E+00  0.00000000E+00
  0.00000000E+00  0.00000000E+00  0.00000000E+00
  0.00000000E+00  0.00000000E+00  0.00000000E+00
  0.00000000E+00  0.00000000E+00  0.00000000E+00
  0.00000000E+00  0.00000000E+00  0.00000000E+00
  0.00000000E+00  0.00000000E+00  0.00000000E+00
  0.00000000E+00  0.00000000E+00  0.00000000E+00
  0.00000000E+00  0.00000000E+00  0.00000000E+00
  0.00000000E+00  0.00000000E+00  0.00000000E+00
  0.00000000E+00  0.00000000E+00  0.00000000E+00
  0.00000000E+00  0.00000000E+00  0.00000000E+00
  0.00000000E+00  0.00000000E+00  0.00000000E+00
  0.00000000E+00  0.00000000E+00  0.00000000E+00
  0.00000000E+00  0.00000000E+00  0.00000000E+00
  0.00000000E+00  0.00000000E+00  0.00000000E+00
  0.00000000E+00  0.00000000E+00  0.00000000E+00
  0.00000000E+00  0.00000000E+00  0.00000000E+00
  0.00000000E+00  0.00000000E+00  0.00000000E+00
  0.00000000E+00  0.00000000E+00  0.00000000E+00
  0.00000000E+00  0.00000000E+00  0.00000000E+00
  0.00000000E+00  0.00000000E+00  0.00000000E+00
  0.00000000E+00  0.00000000E+00  0.00000000E+00
  0.00000000E+00  0.00000000E+00  0.00000000E+00
  0.00000000E+00  0.00000000E+00  0.00000000E+00
  0.00000000E+00  0.00000000E+00  0.00000000E+00
  0.00000000E+00  0.00000000E+00  0.00000000E+00
  0.00000000E+00  0.00000000E+00  0.00000000E+00
  0.00000000E+00  0.00000000E+00  0.00000000E+00
