C4                                      
   1.00000000000000     
    14.8063199999999995    0.0000000000000000    0.0000000000000000
    -7.4031599999999997   12.8226492600000004    0.0000000000000000
     0.0000000000000000    0.0000000000000000   18.0000000000000000
   C    Ag   Au
    72     1     3
Direct
  0.0523953922263445  0.1113174885223032  0.3634668781256494
  0.9969771047270939  0.0002653897897673  0.3630429716705734
  0.0523683875003442  0.2781487533043503  0.3629212835877880
  0.9969390800709377  0.1670283668362913  0.3631949862376800
  0.0525952162027394  0.4449045858294340  0.3619366191306241
  0.9969513437872592  0.3337618931515962  0.3621452148077253
  0.0526374760475079  0.6115347906998068  0.3617958422608538
  0.9970430947240416  0.5004372432191317  0.3615903770908133
  0.0526052931550112  0.7781504850522794  0.3623210508929233
  0.9970333990830653  0.6670667099171723  0.3618221277645333
  0.0526331800703446  0.9448137231384877  0.3629286035418957
  0.9970533774826649  0.8336805433292582  0.3624946179563509
  0.2192520321101341  0.1113358840137906  0.3633087968013982
  0.1637176479781459  0.0003164102602824  0.3629933888770509
  0.2185644002830358  0.2778376476973747  0.3651454216583261
  0.1633839083267361  0.1666028246263949  0.3640249934045414
  0.2192237628346376  0.4450212832704423  0.3624149772035778
  0.1633760722527171  0.3338764168783683  0.3634373460534306
  0.2193153921655693  0.6116148355928175  0.3620030917329942
  0.1636831007401511  0.5005231994592449  0.3620477450439381
  0.2193528235910449  0.7782336751444490  0.3623259766354892
  0.1637283614886087  0.6670897762627916  0.3620529659557832
  0.2193597640014104  0.9448170595790941  0.3626834281753943
  0.1637521741314032  0.8337386149785146  0.3625058788229012
  0.3861265726522021  0.1113973137957416  0.3622021328267664
  0.3304518706416957  0.0003155228535476  0.3624301190976738
  0.3865654427745540  0.2778021950343330  0.3632540015563492
  0.3304836160344848  0.1667530837973601  0.3628331980490529
  0.3865147961905109  0.4457844150596841  0.3632907892820114
  0.3305786592397340  0.3337734653574174  0.3657195983220660
  0.3861076560138343  0.6118381790359706  0.3619792203259209
  0.3304016271204446  0.5008216501378655  0.3623557012760728
  0.3860302251284722  0.7782757462557655  0.3622275424156740
  0.3304420671503365  0.6672320628597959  0.3620381965384496
  0.3860250594387580  0.9448436801624780  0.3623196543554954
  0.3304163588533484  0.8337750255652310  0.3623519832006394
  0.5527208943358417  0.1115362905518253  0.3617398525147095
  0.4971538190788749  0.0004558429638948  0.3621680149570210
  0.5528125008501519  0.2781301818090753  0.3606692024162754
  0.4971789896947527  0.1670958454428799  0.3615491707975025
  0.5529178250699260  0.4449795336200637  0.3605816575495879
  0.4975483885561900  0.3337953665601674  0.3610600957904069
  0.5528917100605284  0.6117667269165565  0.3614890487583438
  0.4976284248125111  0.5008090611495106  0.3614523425630480
  0.5526880672645120  0.7782516532115977  0.3622592261540802
  0.4971777606853465  0.6672031773354874  0.3620120607065047
  0.5527125477664470  0.9449101996576204  0.3622995073060480
  0.4971206381545556  0.8337823632607950  0.3623304766389808
  0.7192835851162798  0.1115043529357678  0.3620172486519877
  0.6637610229026052  0.0004302497424291  0.3623424151010823
  0.7193528414891333  0.2782002999669047  0.3608626216839355
  0.6637735923835848  0.1670671204378635  0.3614969777657464
  0.7193675014535188  0.4448790449526001  0.3602699554173228
  0.6638500574477177  0.3337332856169510  0.3603298519836144
  0.7193305602735904  0.6114997647351998  0.3609056951128551
  0.6638249206048386  0.5004807902545991  0.3602602130872441
  0.7193842094566492  0.7782344850901239  0.3620799516169058
  0.6638983831641383  0.6671303896833436  0.3614168573963852
  0.7193289846182935  0.9448612818351023  0.3625027610960885
  0.6638085139704373  0.8337817955977442  0.3623498977703505
  0.8859239266554937  0.1115059218191305  0.3627688732040681
  0.8303830124741651  0.0003649568247681  0.3627302240435455
  0.8859085903138393  0.2781820263340578  0.3618215244630676
  0.8303912213712366  0.1670826349824637  0.3622000481206555
  0.8859245719960498  0.4448458922308234  0.3610931394070889
  0.8303762496705076  0.3337638058567549  0.3611725776102119
  0.8859792936436435  0.6115310374444789  0.3613054292710629
  0.8304061888404846  0.5004051228930848  0.3607273246038716
  0.8859647523310912  0.7781349489299672  0.3621325565092022
  0.8304190212134515  0.6670477913218704  0.3614348113607093
  0.8858899434046847  0.9447771063767547  0.3627534216851984
  0.8304046983445161  0.8337141508228356  0.3623562900951782
  0.3319735088097460  0.3433963046225657  0.4970420031790326
  0.3217186399674219  0.3824001149466199  0.6379598727698550
  0.4951905027848511  0.3944331034164819  0.5886964922508824
  0.6625059927489829  0.4047310373805502  0.5442571279118198
 
  0.00000000E+00  0.00000000E+00  0.00000000E+00
  0.00000000E+00  0.00000000E+00  0.00000000E+00
  0.00000000E+00  0.00000000E+00  0.00000000E+00
  0.00000000E+00  0.00000000E+00  0.00000000E+00
  0.00000000E+00  0.00000000E+00  0.00000000E+00
  0.00000000E+00  0.00000000E+00  0.00000000E+00
  0.00000000E+00  0.00000000E+00  0.00000000E+00
  0.00000000E+00  0.00000000E+00  0.00000000E+00
  0.00000000E+00  0.00000000E+00  0.00000000E+00
  0.00000000E+00  0.00000000E+00  0.00000000E+00
  0.00000000E+00  0.00000000E+00  0.00000000E+00
  0.00000000E+00  0.00000000E+00  0.00000000E+00
  0.00000000E+00  0.00000000E+00  0.00000000E+00
  0.00000000E+00  0.00000000E+00  0.00000000E+00
  0.00000000E+00  0.00000000E+00  0.00000000E+00
  0.00000000E+00  0.00000000E+00  0.00000000E+00
  0.00000000E+00  0.00000000E+00  0.00000000E+00
  0.00000000E+00  0.00000000E+00  0.00000000E+00
  0.00000000E+00  0.00000000E+00  0.00000000E+00
  0.00000000E+00  0.00000000E+00  0.00000000E+00
  0.00000000E+00  0.00000000E+00  0.00000000E+00
  0.00000000E+00  0.00000000E+00  0.00000000E+00
  0.00000000E+00  0.00000000E+00  0.00000000E+00
  0.00000000E+00  0.00000000E+00  0.00000000E+00
  0.00000000E+00  0.00000000E+00  0.00000000E+00
  0.00000000E+00  0.00000000E+00  0.00000000E+00
  0.00000000E+00  0.00000000E+00  0.00000000E+00
  0.00000000E+00  0.00000000E+00  0.00000000E+00
  0.00000000E+00  0.00000000E+00  0.00000000E+00
  0.00000000E+00  0.00000000E+00  0.00000000E+00
  0.00000000E+00  0.00000000E+00  0.00000000E+00
  0.00000000E+00  0.00000000E+00  0.00000000E+00
  0.00000000E+00  0.00000000E+00  0.00000000E+00
  0.00000000E+00  0.00000000E+00  0.00000000E+00
  0.00000000E+00  0.00000000E+00  0.00000000E+00
  0.00000000E+00  0.00000000E+00  0.00000000E+00
  0.00000000E+00  0.00000000E+00  0.00000000E+00
  0.00000000E+00  0.00000000E+00  0.00000000E+00
  0.00000000E+00  0.00000000E+00  0.00000000E+00
  0.00000000E+00  0.00000000E+00  0.00000000E+00
  0.00000000E+00  0.00000000E+00  0.00000000E+00
  0.00000000E+00  0.00000000E+00  0.00000000E+00
  0.00000000E+00  0.00000000E+00  0.00000000E+00
  0.00000000E+00  0.00000000E+00  0.00000000E+00
  0.00000000E+00  0.00000000E+00  0.00000000E+00
  0.00000000E+00  0.00000000E+00  0.00000000E+00
  0.00000000E+00  0.00000000E+00  0.00000000E+00
  0.00000000E+00  0.00000000E+00  0.00000000E+00
  0.00000000E+00  0.00000000E+00  0.00000000E+00
  0.00000000E+00  0.00000000E+00  0.00000000E+00
  0.00000000E+00  0.00000000E+00  0.00000000E+00
  0.00000000E+00  0.00000000E+00  0.00000000E+00
  0.00000000E+00  0.00000000E+00  0.00000000E+00
  0.00000000E+00  0.00000000E+00  0.00000000E+00
  0.00000000E+00  0.00000000E+00  0.00000000E+00
  0.00000000E+00  0.00000000E+00  0.00000000E+00
  0.00000000E+00  0.00000000E+00  0.00000000E+00
  0.00000000E+00  0.00000000E+00  0.00000000E+00
  0.00000000E+00  0.00000000E+00  0.00000000E+00
  0.00000000E+00  0.00000000E+00  0.00000000E+00
  0.00000000E+00  0.00000000E+00  0.00000000E+00
  0.00000000E+00  0.00000000E+00  0.00000000E+00
  0.00000000E+00  0.00000000E+00  0.00000000E+00
  0.00000000E+00  0.00000000E+00  0.00000000E+00
  0.00000000E+00  0.00000000E+00  0.00000000E+00
  0.00000000E+00  0.00000000E+00  0.00000000E+00
  0.00000000E+00  0.00000000E+00  0.00000000E+00
  0.00000000E+00  0.00000000E+00  0.00000000E+00
  0.00000000E+00  0.00000000E+00  0.00000000E+00
  0.00000000E+00  0.00000000E+00  0.00000000E+00
  0.00000000E+00  0.00000000E+00  0.00000000E+00
  0.00000000E+00  0.00000000E+00  0.00000000E+00
  0.00000000E+00  0.00000000E+00  0.00000000E+00
  0.00000000E+00  0.00000000E+00  0.00000000E+00
  0.00000000E+00  0.00000000E+00  0.00000000E+00
  0.00000000E+00  0.00000000E+00  0.00000000E+00
