Comment                                 
   1.00000000000000     
    20.0000000000000000    0.0000000000000000    0.0000000000000000
     0.0000000000000000   20.0000000000000000    0.0000000000000000
     0.0000000000000000    0.0000000000000000   20.0000000000000000
   Cu   Au
     2     2
Direct
  0.5061486558314812  0.4347907617982258  0.4249999999999972
  0.4002113616847467  0.4817038975843886  0.4249999999999972
  0.4086702275143139  0.3577312350257529  0.4249999999999972
  0.4977672549694674  0.5586686055916275  0.4249999999999972
 
  0.00000000E+00  0.00000000E+00  0.00000000E+00
  0.00000000E+00  0.00000000E+00  0.00000000E+00
  0.00000000E+00  0.00000000E+00  0.00000000E+00
  0.00000000E+00  0.00000000E+00  0.00000000E+00
