C4                                      
   1.00000000000000     
    14.8063199999999995    0.0000000000000000    0.0000000000000000
    -7.4031599999999997   12.8226492600000004    0.0000000000000000
     0.0000000000000000    0.0000000000000000   18.0000000000000000
   C    Au
    72     4
Direct
  0.0555749778663710  0.1111099615143303  0.3601415128792027
  0.9999873586808476  0.0000464223078041  0.3612817478409198
  0.0555522398217647  0.2778056297480802  0.3600979070433183
  0.9999577910116599  0.1666504674647911  0.3604311646978502
  0.0555364545264965  0.4444054847245340  0.3617037399359688
  0.9999729097150833  0.3332907658458879  0.3612413987288718
  0.0554824212601233  0.6110349316432959  0.3635765411868590
  0.0000104958795575  0.4999676786035891  0.3632676800851442
  0.0555011917439714  0.7778143903287145  0.3635690510998941
  0.9998921070310658  0.6666301912421702  0.3646512111615436
  0.0555394254305099  0.9444848005374595  0.3616990919634873
  0.0000154953601381  0.8333960260785673  0.3632132928482577
  0.2220343427080351  0.1109827378537815  0.3598048424658913
  0.1665193827505860  0.9999265100087698  0.3609097668516483
  0.2222855581598679  0.2778091113972820  0.3589631991641440
  0.1666265333026260  0.1665840809120169  0.3593239842467639
  0.2220228747581885  0.4443887696542816  0.3597563816827147
  0.1666144646480845  0.3333733528425356  0.3592841446416273
  0.2220799375087097  0.6110664608481997  0.3614844736434222
  0.1665142718580555  0.4999368597828635  0.3609046538750036
  0.2221380776348951  0.7777335675681911  0.3622649338926536
  0.1665358749786634  0.6665825784187547  0.3624662170379764
  0.2220959961322038  0.9443712042368162  0.3614663394038544
  0.1665579087752747  0.8333066474589330  0.3624671466253986
  0.3887139294265225  0.1109417636543810  0.3608809743808479
  0.3331683794496882  0.9998387040473133  0.3611311099779826
  0.3883777321091912  0.2773020938271173  0.3607772717245510
  0.3330245697828502  0.1663490864807926  0.3601400653122298
  0.3883738930743306  0.4444133624837789  0.3607367734230067
  0.3331055188243184  0.3332216104567536  0.3597485215151224
  0.3886996832428338  0.6110950813723690  0.3608658398691560
  0.3330124362631040  0.5000075483496147  0.3600825841831252
  0.3887544967634966  0.7777141672679662  0.3613776305003213
  0.3331580194788728  0.6666650068340161  0.3611500220642156
  0.3887487656085113  0.9443720471129637  0.3613639856805904
  0.3331504361494595  0.8332411938708333  0.3616300556569598
  0.5554390236474589  0.1108943193078957  0.3615414584857533
  0.4998592633867105  0.9998874118864336  0.3613507447314745
  0.5553067547503048  0.2772989629434761  0.3630866981184084
  0.4997469680993873  0.1662941656030412  0.3614930697269756
  0.5546745360496601  0.4439995275254560  0.3700748524368223
  0.4990439252512786  0.3318704804312560  0.3641997849291911
  0.5552993961017592  0.6113354900418955  0.3630945950265954
  0.4990370785965226  0.5005013075166289  0.3642124887954594
  0.5554305190072597  0.7778619560568600  0.3615508312780236
  0.4997338514003999  0.6667676488423169  0.3614883302975969
  0.5554946137363928  0.9444156187757571  0.3614239302739506
  0.4998665733941934  0.8333062009073657  0.3613289909584196
  0.7221667670740644  0.1110831277106996  0.3617635401099051
  0.6665302058956044  0.9999425003403104  0.3615593288608423
  0.7222087195127784  0.2776733394188184  0.3631381919843548
  0.6665551913190200  0.1665097095865491  0.3620324725894335
  0.7226905488294975  0.4440936767356689  0.3672617304832002
  0.6666811620181505  0.3331625500230970  0.3643811127694150
  0.7226791197857594  0.6119477524677208  0.3672717375398875
  0.6674020431024701  0.5003753044376182  0.3708222739224212
  0.7222158315890255  0.7778923204586192  0.3631741021781068
  0.6666763663613153  0.6668731189916883  0.3644027473553635
  0.7221602528863471  0.9444312524682843  0.3617518063956382
  0.6665505687583178  0.8333894716981973  0.3620842606366281
  0.8889299271620246  0.1111249705918951  0.3611985650042939
  0.8333019958129526  0.9999846799096090  0.3616182273917659
  0.8888827222876827  0.2777079292027977  0.3620632050421051
  0.8333026083351953  0.1666460750396084  0.3616567225339224
  0.8889742363244935  0.4443560350606006  0.3642271634397289
  0.8332992313867109  0.3332525261661559  0.3633012945755425
  0.8889852792907789  0.6111706690670218  0.3661811207650842
  0.8335368181642195  0.4999376049563153  0.3661137769782883
  0.8889752955914645  0.7779492832523403  0.3642056567915333
  0.8335228133723618  0.6669363808207009  0.3661380879795644
  0.8888944048172078  0.9445185638739702  0.3620419781989384
  0.8333103216564268  0.8333910326308214  0.3632907660529838
  0.5776448071163429  0.4554570203126005  0.4953339565479524
  0.2109595627472984  0.2721717380006652  0.5469132252385336
  0.5936503063879357  0.4633158827556016  0.6381575909349593
  0.4028248372772012  0.3679777974041230  0.5797968753503184
 
  0.00000000E+00  0.00000000E+00  0.00000000E+00
  0.00000000E+00  0.00000000E+00  0.00000000E+00
  0.00000000E+00  0.00000000E+00  0.00000000E+00
  0.00000000E+00  0.00000000E+00  0.00000000E+00
  0.00000000E+00  0.00000000E+00  0.00000000E+00
  0.00000000E+00  0.00000000E+00  0.00000000E+00
  0.00000000E+00  0.00000000E+00  0.00000000E+00
  0.00000000E+00  0.00000000E+00  0.00000000E+00
  0.00000000E+00  0.00000000E+00  0.00000000E+00
  0.00000000E+00  0.00000000E+00  0.00000000E+00
  0.00000000E+00  0.00000000E+00  0.00000000E+00
  0.00000000E+00  0.00000000E+00  0.00000000E+00
  0.00000000E+00  0.00000000E+00  0.00000000E+00
  0.00000000E+00  0.00000000E+00  0.00000000E+00
  0.00000000E+00  0.00000000E+00  0.00000000E+00
  0.00000000E+00  0.00000000E+00  0.00000000E+00
  0.00000000E+00  0.00000000E+00  0.00000000E+00
  0.00000000E+00  0.00000000E+00  0.00000000E+00
  0.00000000E+00  0.00000000E+00  0.00000000E+00
  0.00000000E+00  0.00000000E+00  0.00000000E+00
  0.00000000E+00  0.00000000E+00  0.00000000E+00
  0.00000000E+00  0.00000000E+00  0.00000000E+00
  0.00000000E+00  0.00000000E+00  0.00000000E+00
  0.00000000E+00  0.00000000E+00  0.00000000E+00
  0.00000000E+00  0.00000000E+00  0.00000000E+00
  0.00000000E+00  0.00000000E+00  0.00000000E+00
  0.00000000E+00  0.00000000E+00  0.00000000E+00
  0.00000000E+00  0.00000000E+00  0.00000000E+00
  0.00000000E+00  0.00000000E+00  0.00000000E+00
  0.00000000E+00  0.00000000E+00  0.00000000E+00
  0.00000000E+00  0.00000000E+00  0.00000000E+00
  0.00000000E+00  0.00000000E+00  0.00000000E+00
  0.00000000E+00  0.00000000E+00  0.00000000E+00
  0.00000000E+00  0.00000000E+00  0.00000000E+00
  0.00000000E+00  0.00000000E+00  0.00000000E+00
  0.00000000E+00  0.00000000E+00  0.00000000E+00
  0.00000000E+00  0.00000000E+00  0.00000000E+00
  0.00000000E+00  0.00000000E+00  0.00000000E+00
  0.00000000E+00  0.00000000E+00  0.00000000E+00
  0.00000000E+00  0.00000000E+00  0.00000000E+00
  0.00000000E+00  0.00000000E+00  0.00000000E+00
  0.00000000E+00  0.00000000E+00  0.00000000E+00
  0.00000000E+00  0.00000000E+00  0.00000000E+00
  0.00000000E+00  0.00000000E+00  0.00000000E+00
  0.00000000E+00  0.00000000E+00  0.00000000E+00
  0.00000000E+00  0.00000000E+00  0.00000000E+00
  0.00000000E+00  0.00000000E+00  0.00000000E+00
  0.00000000E+00  0.00000000E+00  0.00000000E+00
  0.00000000E+00  0.00000000E+00  0.00000000E+00
  0.00000000E+00  0.00000000E+00  0.00000000E+00
  0.00000000E+00  0.00000000E+00  0.00000000E+00
  0.00000000E+00  0.00000000E+00  0.00000000E+00
  0.00000000E+00  0.00000000E+00  0.00000000E+00
  0.00000000E+00  0.00000000E+00  0.00000000E+00
  0.00000000E+00  0.00000000E+00  0.00000000E+00
  0.00000000E+00  0.00000000E+00  0.00000000E+00
  0.00000000E+00  0.00000000E+00  0.00000000E+00
  0.00000000E+00  0.00000000E+00  0.00000000E+00
  0.00000000E+00  0.00000000E+00  0.00000000E+00
  0.00000000E+00  0.00000000E+00  0.00000000E+00
  0.00000000E+00  0.00000000E+00  0.00000000E+00
  0.00000000E+00  0.00000000E+00  0.00000000E+00
  0.00000000E+00  0.00000000E+00  0.00000000E+00
  0.00000000E+00  0.00000000E+00  0.00000000E+00
  0.00000000E+00  0.00000000E+00  0.00000000E+00
  0.00000000E+00  0.00000000E+00  0.00000000E+00
  0.00000000E+00  0.00000000E+00  0.00000000E+00
  0.00000000E+00  0.00000000E+00  0.00000000E+00
  0.00000000E+00  0.00000000E+00  0.00000000E+00
  0.00000000E+00  0.00000000E+00  0.00000000E+00
  0.00000000E+00  0.00000000E+00  0.00000000E+00
  0.00000000E+00  0.00000000E+00  0.00000000E+00
  0.00000000E+00  0.00000000E+00  0.00000000E+00
  0.00000000E+00  0.00000000E+00  0.00000000E+00
  0.00000000E+00  0.00000000E+00  0.00000000E+00
  0.00000000E+00  0.00000000E+00  0.00000000E+00
