Comment                                 
   1.00000000000000     
    20.0000000000000000    0.0000000000000000    0.0000000000000000
     0.0000000000000000   20.0000000000000000    0.0000000000000000
     0.0000000000000000    0.0000000000000000   20.0000000000000000
   Ag   Au
     1     2
Direct
  0.4142555502643646  0.4829660688598736  0.4249999999999972
  0.5461459588200697  0.4873826007857502  0.4249999999999972
  0.4709609909155574  0.6020578303543758  0.4249999999999972
 
  0.00000000E+00  0.00000000E+00  0.00000000E+00
  0.00000000E+00  0.00000000E+00  0.00000000E+00
  0.00000000E+00  0.00000000E+00  0.00000000E+00
