C4                                      
   1.00000000000000     
    14.8063199999999995    0.0000000000000000    0.0000000000000000
    -7.4031599999999997   12.8226492600000004    0.0000000000000000
     0.0000000000000000    0.0000000000000000   17.0000000000000000
   C    Pt
    72     3
Direct
  0.0537133306752438  0.1102673562804739  0.3818707215725325
  0.9981460288858983  0.9992122876995637  0.3825813818466131
  0.0538510001078407  0.2769257100539235  0.3815085975587564
  0.9981516866064268  0.1658017637765354  0.3817400970606784
  0.0537133606752462  0.4434464643947749  0.3818707215725325
  0.9981516766064260  0.3323498828298952  0.3817400970606784
  0.0534671438872394  0.6099570005121819  0.3825576198676544
  0.9981460388858991  0.4989337711863442  0.3825813818466131
  0.0533271115526119  0.7766637857763001  0.3828229705188804
  0.9977472793104027  0.6654549130400298  0.3834670943045140
  0.0534671238872377  0.9435105933750521  0.3825576198676544
  0.9977472693103948  0.8322923662703730  0.3834670943045140
  0.2199657949343035  0.1098439752966627  0.3820523041098340
  0.1643947231686553  0.9987893488634256  0.3819225644231636
  0.2203671173559556  0.2767678648593517  0.3822813398772240
  0.1646476870766662  0.1655466056927466  0.3819349164398318
  0.2203671473559510  0.4435997324966010  0.3822813398772240
  0.1647755423731425  0.3323877461865763  0.3817989044366641
  0.2199658049343043  0.6101222896376441  0.3820523041098340
  0.1646477070766679  0.4991011013839355  0.3819349164398318
  0.2199461332096462  0.7767013482100680  0.3818189242242696
  0.1643947231686553  0.6656053843052305  0.3819225644231636
  0.2199461232096454  0.9432452249995791  0.3818189242242696
  0.1642490209391099  0.8321245104695620  0.3819272680689210
  0.3865765533529171  0.1097628968052433  0.3828464540605268
  0.3309757163241969  0.9986731689182520  0.3819436614449998
  0.3863948233606607  0.2760813593225109  0.3852859190592781
  0.3309421701556658  0.1650702375482069  0.3830821643431790
  0.3865871520046369  0.4432938310023218  0.3853544365694148
  0.3310425326572712  0.3318837234107903  0.3840873286375484
  0.3863948433606623  0.6103139240381452  0.3852859190592781
  0.3310425626572666  0.4991588192464818  0.3840873286375484
  0.3865765533529171  0.7768141065476755  0.3828464540605268
  0.3309421801556667  0.6658719326074589  0.3830821643431790
  0.3866123471986711  0.9433063935993289  0.3818633656359225
  0.3309757163241969  0.8323025474059520  0.3819436614449998
  0.5535112414825250  0.1098976260345950  0.3824544255673672
  0.4978407008882115  0.9989203504441093  0.3819540583710221
  0.5531548018815613  0.2759878936037978  0.3865183725983456
  0.4977655385242556  0.1652865855688717  0.3835506850810759
  0.5520858309810990  0.4421258092303830  0.3974674724413134
  0.4969912688010325  0.3305455602998961  0.3891957810280928
  0.5520858209811053  0.6099605117507210  0.3974674724413134
  0.4960883689586169  0.4980442094793105  0.3910490358305978
  0.5531548218815630  0.7771673582777794  0.3865183725983456
  0.4969912988010350  0.6664457085011435  0.3891957810280928
  0.5535112414825250  0.9436140554479238  0.3824544255673672
  0.4977655485242565  0.8324789429553832  0.3835506850810759
  0.7202791623274152  0.1101398011637116  0.3821045088210369
  0.6646152654290916  0.9991623078955030  0.3825600333933394
  0.7203510635160981  0.2765894889023954  0.3838418030542243
  0.6646152554290907  0.1654529375335798  0.3825600333933394
  0.7210918186559780  0.4425980643148719  0.3900075858115031
  0.6649702639922381  0.3319061988725167  0.3867738876984887
  0.7219788654549362  0.6109896777274670  0.3924868113619198
  0.6658969848939122  0.4990024252872942  0.3981879913640682
  0.7210918086559772  0.7784942343411103  0.3900075858115031
  0.6658969748939114  0.6668945896066276  0.3981879913640682
  0.7203510735160918  0.9437620046136956  0.3838418030542243
  0.6649702739922319  0.8330640451197198  0.3867738876984887
  0.8871281924370251  0.1103800160820754  0.3821203057763967
  0.8315345583454601  0.9992904014649824  0.3832677966475586
  0.8871281824370243  0.2767485963549490  0.3821203057763967
  0.8314954537861539  0.1657477118930828  0.3820010990265175
  0.8871642455529596  0.4431775369828586  0.3838395270467458
  0.8315345483454593  0.3322441268804681  0.3832677966475586
  0.8870707135609806  0.6098953096665269  0.3856102506292061
  0.8316960593097988  0.4987209466332487  0.3864481184268058
  0.8870707035609797  0.7771758738944499  0.3856102506292061
  0.8315272868871517  0.6657636534435625  0.3870911060693700
  0.8871642155529642  0.9439871685701036  0.3838395270467458
  0.8316960393098043  0.8329751226765580  0.3864481184268058
  0.6063585255851933  0.6356740132568746  0.5231877677989232
  0.6063584555851946  0.4706851423283211  0.5231877677989232
  0.6023273497007935  0.5511640048503921  0.6513565264604821
 
  0.00000000E+00  0.00000000E+00  0.00000000E+00
  0.00000000E+00  0.00000000E+00  0.00000000E+00
  0.00000000E+00  0.00000000E+00  0.00000000E+00
  0.00000000E+00  0.00000000E+00  0.00000000E+00
  0.00000000E+00  0.00000000E+00  0.00000000E+00
  0.00000000E+00  0.00000000E+00  0.00000000E+00
  0.00000000E+00  0.00000000E+00  0.00000000E+00
  0.00000000E+00  0.00000000E+00  0.00000000E+00
  0.00000000E+00  0.00000000E+00  0.00000000E+00
  0.00000000E+00  0.00000000E+00  0.00000000E+00
  0.00000000E+00  0.00000000E+00  0.00000000E+00
  0.00000000E+00  0.00000000E+00  0.00000000E+00
  0.00000000E+00  0.00000000E+00  0.00000000E+00
  0.00000000E+00  0.00000000E+00  0.00000000E+00
  0.00000000E+00  0.00000000E+00  0.00000000E+00
  0.00000000E+00  0.00000000E+00  0.00000000E+00
  0.00000000E+00  0.00000000E+00  0.00000000E+00
  0.00000000E+00  0.00000000E+00  0.00000000E+00
  0.00000000E+00  0.00000000E+00  0.00000000E+00
  0.00000000E+00  0.00000000E+00  0.00000000E+00
  0.00000000E+00  0.00000000E+00  0.00000000E+00
  0.00000000E+00  0.00000000E+00  0.00000000E+00
  0.00000000E+00  0.00000000E+00  0.00000000E+00
  0.00000000E+00  0.00000000E+00  0.00000000E+00
  0.00000000E+00  0.00000000E+00  0.00000000E+00
  0.00000000E+00  0.00000000E+00  0.00000000E+00
  0.00000000E+00  0.00000000E+00  0.00000000E+00
  0.00000000E+00  0.00000000E+00  0.00000000E+00
  0.00000000E+00  0.00000000E+00  0.00000000E+00
  0.00000000E+00  0.00000000E+00  0.00000000E+00
  0.00000000E+00  0.00000000E+00  0.00000000E+00
  0.00000000E+00  0.00000000E+00  0.00000000E+00
  0.00000000E+00  0.00000000E+00  0.00000000E+00
  0.00000000E+00  0.00000000E+00  0.00000000E+00
  0.00000000E+00  0.00000000E+00  0.00000000E+00
  0.00000000E+00  0.00000000E+00  0.00000000E+00
  0.00000000E+00  0.00000000E+00  0.00000000E+00
  0.00000000E+00  0.00000000E+00  0.00000000E+00
  0.00000000E+00  0.00000000E+00  0.00000000E+00
  0.00000000E+00  0.00000000E+00  0.00000000E+00
  0.00000000E+00  0.00000000E+00  0.00000000E+00
  0.00000000E+00  0.00000000E+00  0.00000000E+00
  0.00000000E+00  0.00000000E+00  0.00000000E+00
  0.00000000E+00  0.00000000E+00  0.00000000E+00
  0.00000000E+00  0.00000000E+00  0.00000000E+00
  0.00000000E+00  0.00000000E+00  0.00000000E+00
  0.00000000E+00  0.00000000E+00  0.00000000E+00
  0.00000000E+00  0.00000000E+00  0.00000000E+00
  0.00000000E+00  0.00000000E+00  0.00000000E+00
  0.00000000E+00  0.00000000E+00  0.00000000E+00
  0.00000000E+00  0.00000000E+00  0.00000000E+00
  0.00000000E+00  0.00000000E+00  0.00000000E+00
  0.00000000E+00  0.00000000E+00  0.00000000E+00
  0.00000000E+00  0.00000000E+00  0.00000000E+00
  0.00000000E+00  0.00000000E+00  0.00000000E+00
  0.00000000E+00  0.00000000E+00  0.00000000E+00
  0.00000000E+00  0.00000000E+00  0.00000000E+00
  0.00000000E+00  0.00000000E+00  0.00000000E+00
  0.00000000E+00  0.00000000E+00  0.00000000E+00
  0.00000000E+00  0.00000000E+00  0.00000000E+00
  0.00000000E+00  0.00000000E+00  0.00000000E+00
  0.00000000E+00  0.00000000E+00  0.00000000E+00
  0.00000000E+00  0.00000000E+00  0.00000000E+00
  0.00000000E+00  0.00000000E+00  0.00000000E+00
  0.00000000E+00  0.00000000E+00  0.00000000E+00
  0.00000000E+00  0.00000000E+00  0.00000000E+00
  0.00000000E+00  0.00000000E+00  0.00000000E+00
  0.00000000E+00  0.00000000E+00  0.00000000E+00
  0.00000000E+00  0.00000000E+00  0.00000000E+00
  0.00000000E+00  0.00000000E+00  0.00000000E+00
  0.00000000E+00  0.00000000E+00  0.00000000E+00
  0.00000000E+00  0.00000000E+00  0.00000000E+00
  0.00000000E+00  0.00000000E+00  0.00000000E+00
  0.00000000E+00  0.00000000E+00  0.00000000E+00
  0.00000000E+00  0.00000000E+00  0.00000000E+00
