C4                                      
   1.00000000000000     
    14.8063199999999995    0.0000000000000000    0.0000000000000000
    -7.4031599999999997   12.8226492600000004    0.0000000000000000
     0.0000000000000000    0.0000000000000000   17.0000000000000000
   C    Ni
    72     3
Direct
  0.0558368844425843  0.1113097576459339  0.3842084767819500
  0.0003388245641531  0.0002938716627909  0.3843816617652820
  0.0558641985704256  0.2779323092852124  0.3842242367286133
  0.0002968711370599  0.1668670263834358  0.3841195058317979
  0.0558369144425868  0.4445276167966554  0.3842084767819500
  0.0002968611370591  0.3334298047536350  0.3841195058317979
  0.0557123504675090  0.6110892320022074  0.3843162606853596
  0.0003388345641540  0.5000449829013718  0.3843816617652820
  0.0556092562721773  0.7778048581360935  0.3843926461780498
  0.0001317655801145  0.6666539756711671  0.3847145078671375
  0.0557123304675073  0.9446235684653104  0.3843162606853596
  0.0001317555801137  0.8334777899089474  0.3847145078671375
  0.2221638624768261  0.1109514816193951  0.3844903044848991
  0.1666694520910852  0.9999431039604474  0.3841464901449569
  0.2223737184678996  0.2777629968190993  0.3850700325384224
  0.1667890492865567  0.1666143355312784  0.3845174905973110
  0.2223737484678949  0.4446112016487973  0.3850700325384224
  0.1668760772938072  0.3334380136469051  0.3847415736557949
  0.2221638724768269  0.6112128508574344  0.3844903044848991
  0.1667890692865583  0.5001747337552871  0.3845174905973110
  0.2222206353888652  0.7778207683061495  0.3840268998295215
  0.1666694520910852  0.6667263581306386  0.3841464901449569
  0.2222206253888643  0.9444003070827165  0.3840268998295215
  0.1666278038858380  0.8333139019429154  0.3840156566549382
  0.3888133983680504  0.1108712113422783  0.3846465469642268
  0.3332668154104539  0.9998395987640123  0.3840702818391790
  0.3885707818722892  0.2771882078602346  0.3867019653653472
  0.3331597563487563  0.1662244496985892  0.3851807215163063
  0.3883952025937703  0.4441978562968814  0.3874094665284460
  0.3331790694100292  0.3330149563953597  0.3863619759772092
  0.3885708018722909  0.6113830340120501  0.3867019653653472
  0.3331790994100245  0.5001641230146632  0.3863619759772092
  0.3888133983680504  0.7779426370257738  0.3846465469642268
  0.3331597663487571  0.6669353066501671  0.3851807215163063
  0.3888556924494537  0.9444280662247309  0.3838783741416307
  0.3332668154104539  0.8334272166464416  0.3840702818391790
  0.5557009883623678  0.1109832226959142  0.3838581402701635
  0.5000323873440777  0.0000161936720389  0.3836883383674419
  0.5554659311067383  0.2771047214762774  0.3861083948167590
  0.4999706091380531  0.1663572264243456  0.3846771449706594
  0.5547490807474844  0.4435100304494171  0.3919950755525150
  0.4993864224477065  0.3319256837441102  0.3883178389005977
  0.5547490707474836  0.6112395402980795  0.3919950755525150
  0.4987477586000111  0.4993739043000076  0.3902120323166187
  0.5554659511067399  0.7783616596304626  0.3861083948167590
  0.4993864524477090  0.6674607387035891  0.3883178389005977
  0.5557009883623678  0.9447182056664616  0.3838581402701635
  0.4999706191380540  0.8336133727136996  0.3846771449706594
  0.7224684470170004  0.1112344435085078  0.3835700768553352
  0.6668059431628848  0.0002773158228919  0.3837871765451624
  0.7225295829692726  0.2776299689970614  0.3845295237996069
  0.6668059331628839  0.1665286073399912  0.3837871765451624
  0.7230977021868412  0.4437923278170359  0.3880485089659516
  0.6670007037066341  0.3328704867119328  0.3860151323767838
  0.7237080755258276  0.6118542827629128  0.3898475259970837
  0.6677059728910208  0.4999983965538561  0.3917953244677221
  0.7230976921868404  0.7793058543698166  0.3880485089659516
  0.6677059628910200  0.6677076063371672  0.3917953244677221
  0.7225295929692663  0.9449000439722042  0.3845295237996069
  0.6670007137066278  0.8341301969947068  0.3860151323767838
  0.8892511349166341  0.1114138282352712  0.3840151633171089
  0.8336917270141768  0.0003778636650722  0.3844809178106274
  0.8892511249166333  0.2778377266813479  0.3840151633171089
  0.8336511967979305  0.1668255833989676  0.3837855433291182
  0.8893313118683892  0.4443137806315747  0.3849720167563717
  0.8336917170141760  0.3333138333491021  0.3844809178106274
  0.8893206157220490  0.6110843867626485  0.3859369375276529
  0.8339322038519015  0.4998659675372394  0.3863448908293137
  0.8893206057220482  0.7782366989593896  0.3859369375276529
  0.8340722541919448  0.6670361370959697  0.3869422731280636
  0.8893312818683938  0.9450179912368171  0.3849720167563717
  0.8339321838519069  0.8340662463146700  0.3863448908293137
  0.6120565355171763  0.6324999467370844  0.5065817367731285
  0.6120564655171705  0.4795522687800968  0.5065817367731285
  0.6127204976145677  0.5563581088072809  0.6207689643808862
 
  0.00000000E+00  0.00000000E+00  0.00000000E+00
  0.00000000E+00  0.00000000E+00  0.00000000E+00
  0.00000000E+00  0.00000000E+00  0.00000000E+00
  0.00000000E+00  0.00000000E+00  0.00000000E+00
  0.00000000E+00  0.00000000E+00  0.00000000E+00
  0.00000000E+00  0.00000000E+00  0.00000000E+00
  0.00000000E+00  0.00000000E+00  0.00000000E+00
  0.00000000E+00  0.00000000E+00  0.00000000E+00
  0.00000000E+00  0.00000000E+00  0.00000000E+00
  0.00000000E+00  0.00000000E+00  0.00000000E+00
  0.00000000E+00  0.00000000E+00  0.00000000E+00
  0.00000000E+00  0.00000000E+00  0.00000000E+00
  0.00000000E+00  0.00000000E+00  0.00000000E+00
  0.00000000E+00  0.00000000E+00  0.00000000E+00
  0.00000000E+00  0.00000000E+00  0.00000000E+00
  0.00000000E+00  0.00000000E+00  0.00000000E+00
  0.00000000E+00  0.00000000E+00  0.00000000E+00
  0.00000000E+00  0.00000000E+00  0.00000000E+00
  0.00000000E+00  0.00000000E+00  0.00000000E+00
  0.00000000E+00  0.00000000E+00  0.00000000E+00
  0.00000000E+00  0.00000000E+00  0.00000000E+00
  0.00000000E+00  0.00000000E+00  0.00000000E+00
  0.00000000E+00  0.00000000E+00  0.00000000E+00
  0.00000000E+00  0.00000000E+00  0.00000000E+00
  0.00000000E+00  0.00000000E+00  0.00000000E+00
  0.00000000E+00  0.00000000E+00  0.00000000E+00
  0.00000000E+00  0.00000000E+00  0.00000000E+00
  0.00000000E+00  0.00000000E+00  0.00000000E+00
  0.00000000E+00  0.00000000E+00  0.00000000E+00
  0.00000000E+00  0.00000000E+00  0.00000000E+00
  0.00000000E+00  0.00000000E+00  0.00000000E+00
  0.00000000E+00  0.00000000E+00  0.00000000E+00
  0.00000000E+00  0.00000000E+00  0.00000000E+00
  0.00000000E+00  0.00000000E+00  0.00000000E+00
  0.00000000E+00  0.00000000E+00  0.00000000E+00
  0.00000000E+00  0.00000000E+00  0.00000000E+00
  0.00000000E+00  0.00000000E+00  0.00000000E+00
  0.00000000E+00  0.00000000E+00  0.00000000E+00
  0.00000000E+00  0.00000000E+00  0.00000000E+00
  0.00000000E+00  0.00000000E+00  0.00000000E+00
  0.00000000E+00  0.00000000E+00  0.00000000E+00
  0.00000000E+00  0.00000000E+00  0.00000000E+00
  0.00000000E+00  0.00000000E+00  0.00000000E+00
  0.00000000E+00  0.00000000E+00  0.00000000E+00
  0.00000000E+00  0.00000000E+00  0.00000000E+00
  0.00000000E+00  0.00000000E+00  0.00000000E+00
  0.00000000E+00  0.00000000E+00  0.00000000E+00
  0.00000000E+00  0.00000000E+00  0.00000000E+00
  0.00000000E+00  0.00000000E+00  0.00000000E+00
  0.00000000E+00  0.00000000E+00  0.00000000E+00
  0.00000000E+00  0.00000000E+00  0.00000000E+00
  0.00000000E+00  0.00000000E+00  0.00000000E+00
  0.00000000E+00  0.00000000E+00  0.00000000E+00
  0.00000000E+00  0.00000000E+00  0.00000000E+00
  0.00000000E+00  0.00000000E+00  0.00000000E+00
  0.00000000E+00  0.00000000E+00  0.00000000E+00
  0.00000000E+00  0.00000000E+00  0.00000000E+00
  0.00000000E+00  0.00000000E+00  0.00000000E+00
  0.00000000E+00  0.00000000E+00  0.00000000E+00
  0.00000000E+00  0.00000000E+00  0.00000000E+00
  0.00000000E+00  0.00000000E+00  0.00000000E+00
  0.00000000E+00  0.00000000E+00  0.00000000E+00
  0.00000000E+00  0.00000000E+00  0.00000000E+00
  0.00000000E+00  0.00000000E+00  0.00000000E+00
  0.00000000E+00  0.00000000E+00  0.00000000E+00
  0.00000000E+00  0.00000000E+00  0.00000000E+00
  0.00000000E+00  0.00000000E+00  0.00000000E+00
  0.00000000E+00  0.00000000E+00  0.00000000E+00
  0.00000000E+00  0.00000000E+00  0.00000000E+00
  0.00000000E+00  0.00000000E+00  0.00000000E+00
  0.00000000E+00  0.00000000E+00  0.00000000E+00
  0.00000000E+00  0.00000000E+00  0.00000000E+00
  0.00000000E+00  0.00000000E+00  0.00000000E+00
  0.00000000E+00  0.00000000E+00  0.00000000E+00
  0.00000000E+00  0.00000000E+00  0.00000000E+00
