C4                                      
   1.00000000000000     
    14.8063199999999995    0.0000000000000000    0.0000000000000000
    -7.4031599999999997   12.8226492600000004    0.0000000000000000
     0.0000000000000000    0.0000000000000000   18.0000000000000000
   C    Pd
    72     2
Direct
  0.0552804562230165  0.1107089232421856  0.3680935256821840
  0.9998270522078201  0.9997159755546150  0.3651914825333904
  0.0552715042429881  0.2778958763532202  0.3681550535328242
  0.9998617349712049  0.1665966685826277  0.3674117472797889
  0.0554399859880732  0.4444974177308723  0.3640544272468702
  0.9998279134102432  0.3334351380462834  0.3652671976529263
  0.0554948831746103  0.6111047024618230  0.3615316780446634
  0.9999303363410661  0.5000390033579833  0.3624267214486707
  0.0554854812009538  0.7776996519764339  0.3615407293806072
  0.9999238851257104  0.6666163633692221  0.3613557195725932
  0.0554399382903554  0.9442571727546607  0.3640090357035319
  0.9999270215189782  0.8332075194958080  0.3624498758303432
  0.2220208371224430  0.1106236616301572  0.3672439197648671
  0.1666312584788301  0.9998587936353331  0.3642595838245057
  0.2213818067468978  0.2773555988447711  0.3765339034240398
  0.1659915042892095  0.1654381308266437  0.3711653392742775
  0.2220326796236094  0.4447465786879050  0.3673149994554947
  0.1660003707082680  0.3338918674173854  0.3712294657820578
  0.2222294012808348  0.6112575526339441  0.3625175843214450
  0.1666322813180869  0.5001029300895183  0.3643281091137140
  0.2222469786449892  0.7777807040886771  0.3610389322181007
  0.1666549441319347  0.6666808463002241  0.3614330590400456
  0.2222189888606394  0.9442951656733385  0.3624789099377352
  0.1666561545881535  0.8332931846411284  0.3614168420154868
  0.3889149022410976  0.1110188100819798  0.3642413919121097
  0.3333403096024838  0.9998614596032667  0.3624773100900569
  0.3895421640290948  0.2772261004192842  0.3711288960085213
  0.3335173646953820  0.1663813701190122  0.3672215158104422
  0.3895323932446999  0.4456742764178045  0.3710717098684668
  0.3341475563069736  0.3337561588740741  0.3764787235592379
  0.3889318264208299  0.6112603934926142  0.3642576797023267
  0.3335282061774762  0.5004954207449757  0.3672454877407958
  0.3889162109337647  0.7778262955271202  0.3614729295894534
  0.3333494357013507  0.6668211923078218  0.3625120182904311
  0.3889120026150152  0.9444399407203719  0.3614479911807038
  0.3333301929241301  0.8333411839246949  0.3610723251705679
  0.5556262691932830  0.1110747105930159  0.3624323241244696
  0.5000759438086746  0.0000096514430936  0.3615762306747143
  0.5557300314598734  0.2776866989679689  0.3652225760453902
  0.5001177821458995  0.1666180357474332  0.3640027991687802
  0.5556701209091557  0.4445094798518170  0.3673565079042760
  0.5002684919781402  0.3332170571566451  0.3680775108648362
  0.5557305748678800  0.6113908884101420  0.3651696299189879
  0.5002570987715558  0.5003965761741611  0.3679914706328447
  0.5556402368857292  0.7779007513498470  0.3624866179878481
  0.5001254821621757  0.6668476522194027  0.3640134287171577
  0.5556432518872683  0.9444935732474491  0.3613945821046940
  0.5000799394983133  0.8334124583793709  0.3616021385720671
  0.7223089964275999  0.1111511052451064  0.3623731865810811
  0.6667339210446244  0.0000383570096787  0.3619345956986919
  0.7222462876481899  0.2777580993382287  0.3627464337584101
  0.6667469969281896  0.1666879050708090  0.3623938687489954
  0.7221907964798504  0.4443822538727602  0.3636523055124457
  0.6667596174415280  0.3333234839319630  0.3637317594951170
  0.7222056906816121  0.6111451009579270  0.3636432377263006
  0.6665196431272022  0.4999268828042531  0.3647878767115316
  0.7222629783909085  0.7778331364916369  0.3627894912429994
  0.6667578205322044  0.6667762615885948  0.3637160012932839
  0.7223170873077862  0.9445002988297304  0.3624070245979567
  0.6667581737703046  0.8334061402860016  0.3624551392767685
  0.8890188591808084  0.1111794544310953  0.3647555908088762
  0.8333627381511093  0.9999731645255636  0.3636029602488193
  0.8887937483437653  0.2777825091806747  0.3637094916988488
  0.8333580815184689  0.1667212547771157  0.3635899586242033
  0.8888076673851799  0.4444274333516205  0.3623905269071415
  0.8332960803220928  0.3333499432745199  0.3627470083268136
  0.8888288555877395  0.6110725117524041  0.3619513433854848
  0.8332440097271956  0.4999610319902104  0.3624112370397015
  0.8888113170359304  0.7776989571527650  0.3624418604142576
  0.8332568009517942  0.6666096476312404  0.3624355190187387
  0.8887958909713589  0.9443301163766833  0.3637085194724747
  0.8332999256891966  0.8332732333535020  0.3627812317828685
  0.2777806468244961  0.3055238628462220  0.4898498079766611
  0.2775820715816906  0.3055287507616526  0.6340257059320180
 
  0.00000000E+00  0.00000000E+00  0.00000000E+00
  0.00000000E+00  0.00000000E+00  0.00000000E+00
  0.00000000E+00  0.00000000E+00  0.00000000E+00
  0.00000000E+00  0.00000000E+00  0.00000000E+00
  0.00000000E+00  0.00000000E+00  0.00000000E+00
  0.00000000E+00  0.00000000E+00  0.00000000E+00
  0.00000000E+00  0.00000000E+00  0.00000000E+00
  0.00000000E+00  0.00000000E+00  0.00000000E+00
  0.00000000E+00  0.00000000E+00  0.00000000E+00
  0.00000000E+00  0.00000000E+00  0.00000000E+00
  0.00000000E+00  0.00000000E+00  0.00000000E+00
  0.00000000E+00  0.00000000E+00  0.00000000E+00
  0.00000000E+00  0.00000000E+00  0.00000000E+00
  0.00000000E+00  0.00000000E+00  0.00000000E+00
  0.00000000E+00  0.00000000E+00  0.00000000E+00
  0.00000000E+00  0.00000000E+00  0.00000000E+00
  0.00000000E+00  0.00000000E+00  0.00000000E+00
  0.00000000E+00  0.00000000E+00  0.00000000E+00
  0.00000000E+00  0.00000000E+00  0.00000000E+00
  0.00000000E+00  0.00000000E+00  0.00000000E+00
  0.00000000E+00  0.00000000E+00  0.00000000E+00
  0.00000000E+00  0.00000000E+00  0.00000000E+00
  0.00000000E+00  0.00000000E+00  0.00000000E+00
  0.00000000E+00  0.00000000E+00  0.00000000E+00
  0.00000000E+00  0.00000000E+00  0.00000000E+00
  0.00000000E+00  0.00000000E+00  0.00000000E+00
  0.00000000E+00  0.00000000E+00  0.00000000E+00
  0.00000000E+00  0.00000000E+00  0.00000000E+00
  0.00000000E+00  0.00000000E+00  0.00000000E+00
  0.00000000E+00  0.00000000E+00  0.00000000E+00
  0.00000000E+00  0.00000000E+00  0.00000000E+00
  0.00000000E+00  0.00000000E+00  0.00000000E+00
  0.00000000E+00  0.00000000E+00  0.00000000E+00
  0.00000000E+00  0.00000000E+00  0.00000000E+00
  0.00000000E+00  0.00000000E+00  0.00000000E+00
  0.00000000E+00  0.00000000E+00  0.00000000E+00
  0.00000000E+00  0.00000000E+00  0.00000000E+00
  0.00000000E+00  0.00000000E+00  0.00000000E+00
  0.00000000E+00  0.00000000E+00  0.00000000E+00
  0.00000000E+00  0.00000000E+00  0.00000000E+00
  0.00000000E+00  0.00000000E+00  0.00000000E+00
  0.00000000E+00  0.00000000E+00  0.00000000E+00
  0.00000000E+00  0.00000000E+00  0.00000000E+00
  0.00000000E+00  0.00000000E+00  0.00000000E+00
  0.00000000E+00  0.00000000E+00  0.00000000E+00
  0.00000000E+00  0.00000000E+00  0.00000000E+00
  0.00000000E+00  0.00000000E+00  0.00000000E+00
  0.00000000E+00  0.00000000E+00  0.00000000E+00
  0.00000000E+00  0.00000000E+00  0.00000000E+00
  0.00000000E+00  0.00000000E+00  0.00000000E+00
  0.00000000E+00  0.00000000E+00  0.00000000E+00
  0.00000000E+00  0.00000000E+00  0.00000000E+00
  0.00000000E+00  0.00000000E+00  0.00000000E+00
  0.00000000E+00  0.00000000E+00  0.00000000E+00
  0.00000000E+00  0.00000000E+00  0.00000000E+00
  0.00000000E+00  0.00000000E+00  0.00000000E+00
  0.00000000E+00  0.00000000E+00  0.00000000E+00
  0.00000000E+00  0.00000000E+00  0.00000000E+00
  0.00000000E+00  0.00000000E+00  0.00000000E+00
  0.00000000E+00  0.00000000E+00  0.00000000E+00
  0.00000000E+00  0.00000000E+00  0.00000000E+00
  0.00000000E+00  0.00000000E+00  0.00000000E+00
  0.00000000E+00  0.00000000E+00  0.00000000E+00
  0.00000000E+00  0.00000000E+00  0.00000000E+00
  0.00000000E+00  0.00000000E+00  0.00000000E+00
  0.00000000E+00  0.00000000E+00  0.00000000E+00
  0.00000000E+00  0.00000000E+00  0.00000000E+00
  0.00000000E+00  0.00000000E+00  0.00000000E+00
  0.00000000E+00  0.00000000E+00  0.00000000E+00
  0.00000000E+00  0.00000000E+00  0.00000000E+00
  0.00000000E+00  0.00000000E+00  0.00000000E+00
  0.00000000E+00  0.00000000E+00  0.00000000E+00
  0.00000000E+00  0.00000000E+00  0.00000000E+00
  0.00000000E+00  0.00000000E+00  0.00000000E+00
