C4                                      
   1.00000000000000     
    14.8063199999999995    0.0000000000000000    0.0000000000000000
    -7.4031599999999997   12.8226492600000004    0.0000000000000000
     0.0000000000000000    0.0000000000000000   18.0000000000000000
   C    Au
    72     4
Direct
  0.0554133137551176  0.1110507435157686  0.3614299816684863
  0.9999036613530166  0.9999329997018336  0.3617506418451484
  0.0555525278395947  0.2777743797387870  0.3608725195142597
  0.9999789282210969  0.1666008820567697  0.3612102325340913
  0.0555326552041606  0.4443939530739556  0.3608627057378442
  0.0000343211702898  0.3333966616900810  0.3608268253287505
  0.0555854144900394  0.6111788899288939  0.3613512319788086
  0.0000164500922324  0.5000139638964569  0.3609984944040221
  0.0556568600189564  0.7778538011318616  0.3618539594833834
  0.0001540119036676  0.6667316329169850  0.3615593660081799
  0.0554839342839699  0.9443855763885480  0.3618705775794524
  0.0000826513446199  0.8334189972133217  0.3619144883288286
  0.2220038194067868  0.1109720314508635  0.3619032479396225
  0.1665870921492996  0.9999057198515828  0.3620166958522404
  0.2220179160050506  0.2776465498003873  0.3610321043303983
  0.1665536444840399  0.1666238995390117  0.3614415634181256
  0.2221269293106545  0.4444987057583845  0.3607911341173065
  0.1665372369335572  0.3333132252136366  0.3607505505973094
  0.2222642769529131  0.6111815404503105  0.3613557966919601
  0.1666732008590657  0.5000143136827830  0.3609386267819659
  0.2222336920752852  0.7777823626909424  0.3619963527135894
  0.1667234795230073  0.6667737373251654  0.3615805411004231
  0.2221794363670782  0.9444982255807872  0.3623550989927367
  0.1666762454174986  0.8333926748118401  0.3621059640412341
  0.3888323746194118  0.1110083866094840  0.3632258421868002
  0.3334035413272716  0.0001382410150512  0.3627254119856929
  0.3876993896571932  0.2771204704631174  0.3640167664487706
  0.3329455217394610  0.1664045421681521  0.3627881866849521
  0.3888076462331824  0.4446728211192905  0.3620221481767842
  0.3330634220195279  0.3331591544834183  0.3619066675582161
  0.3888250982105461  0.6111728145382855  0.3616148889185524
  0.3332618721411649  0.5001648287085558  0.3611686513199572
  0.3888634596024758  0.7778577213627571  0.3618576606342572
  0.3332492664397364  0.6667338757486405  0.3616017264623324
  0.3889794034818621  0.9444925288127592  0.3622984440238426
  0.3333907930597775  0.8333958159295847  0.3620521199768874
  0.5556293447263840  0.1109644623309478  0.3618691145905188
  0.4999751130053625  0.9999019042276345  0.3619552808847004
  0.5561014340866777  0.2771110195500697  0.3640932419582086
  0.5001169195846629  0.1663915535517049  0.3628068517078660
  0.5559915551528789  0.4452908736168624  0.3695468614868318
  0.4995959762812490  0.3325128380827564  0.3693406464203051
  0.5554554994617149  0.6114253879771709  0.3629833423013409
  0.4994681361660795  0.5007158426102976  0.3642735012332992
  0.5555778834540703  0.7779054876502585  0.3620969979793713
  0.4999313566449359  0.6668367368643970  0.3620377525077316
  0.5555581906852822  0.9443893062010176  0.3618487185560255
  0.4999985552661812  0.8334261197895856  0.3619158250688770
  0.7223122329571581  0.1110637877593987  0.3614451901027920
  0.6666900808565899  0.9999456545360843  0.3617616012769389
  0.7223296518419602  0.2776405493882876  0.3610781454210823
  0.6667377246181445  0.1666220933860316  0.3614393048316629
  0.7225549162821281  0.4446639992465080  0.3620491574467408
  0.6667803951235030  0.3331395601792835  0.3620003332186030
  0.7226505446959024  0.6114267925298407  0.3630058301953625
  0.6679354073246344  0.5007122608737617  0.3642609483620447
  0.7221722123809471  0.7776718847217055  0.3628107250331496
  0.6667395751203458  0.6668029539092331  0.3633597778709117
  0.7221805684437470  0.9444227935686129  0.3620496016839709
  0.6665853257143013  0.8333181612996370  0.3624047524282830
  0.8888408632072213  0.1110093073292049  0.3614661088663524
  0.8333461550173027  0.0000168036531463  0.3619060659074194
  0.8888999778107305  0.2777827874750329  0.3609011140624077
  0.8333000310167193  0.1666115727845821  0.3612410762345419
  0.8890555085633096  0.4444881477841278  0.3608187181305240
  0.8334643624285860  0.3333125843988398  0.3607754950835229
  0.8890227223258336  0.6111659619202570  0.3616058257245172
  0.8335928037456526  0.5001546573748783  0.3611669139295302
  0.8889819554403218  0.7778997156090455  0.3620973002932786
  0.8335831072637205  0.6668385024291368  0.3620851514193575
  0.8888976411103329  0.9444070094479002  0.3620035751576580
  0.8333964295648499  0.8333121015362721  0.3623656786582288
  0.5283541152406883  0.3903815856541328  0.4938999425373325
  0.6196298091379404  0.5725473173141964  0.5738485960214206
  0.5266512670962129  0.3871449314594528  0.6388291864608320
  0.4357345934631240  0.2045333816107160  0.5702940835811532
 
  0.00000000E+00  0.00000000E+00  0.00000000E+00
  0.00000000E+00  0.00000000E+00  0.00000000E+00
  0.00000000E+00  0.00000000E+00  0.00000000E+00
  0.00000000E+00  0.00000000E+00  0.00000000E+00
  0.00000000E+00  0.00000000E+00  0.00000000E+00
  0.00000000E+00  0.00000000E+00  0.00000000E+00
  0.00000000E+00  0.00000000E+00  0.00000000E+00
  0.00000000E+00  0.00000000E+00  0.00000000E+00
  0.00000000E+00  0.00000000E+00  0.00000000E+00
  0.00000000E+00  0.00000000E+00  0.00000000E+00
  0.00000000E+00  0.00000000E+00  0.00000000E+00
  0.00000000E+00  0.00000000E+00  0.00000000E+00
  0.00000000E+00  0.00000000E+00  0.00000000E+00
  0.00000000E+00  0.00000000E+00  0.00000000E+00
  0.00000000E+00  0.00000000E+00  0.00000000E+00
  0.00000000E+00  0.00000000E+00  0.00000000E+00
  0.00000000E+00  0.00000000E+00  0.00000000E+00
  0.00000000E+00  0.00000000E+00  0.00000000E+00
  0.00000000E+00  0.00000000E+00  0.00000000E+00
  0.00000000E+00  0.00000000E+00  0.00000000E+00
  0.00000000E+00  0.00000000E+00  0.00000000E+00
  0.00000000E+00  0.00000000E+00  0.00000000E+00
  0.00000000E+00  0.00000000E+00  0.00000000E+00
  0.00000000E+00  0.00000000E+00  0.00000000E+00
  0.00000000E+00  0.00000000E+00  0.00000000E+00
  0.00000000E+00  0.00000000E+00  0.00000000E+00
  0.00000000E+00  0.00000000E+00  0.00000000E+00
  0.00000000E+00  0.00000000E+00  0.00000000E+00
  0.00000000E+00  0.00000000E+00  0.00000000E+00
  0.00000000E+00  0.00000000E+00  0.00000000E+00
  0.00000000E+00  0.00000000E+00  0.00000000E+00
  0.00000000E+00  0.00000000E+00  0.00000000E+00
  0.00000000E+00  0.00000000E+00  0.00000000E+00
  0.00000000E+00  0.00000000E+00  0.00000000E+00
  0.00000000E+00  0.00000000E+00  0.00000000E+00
  0.00000000E+00  0.00000000E+00  0.00000000E+00
  0.00000000E+00  0.00000000E+00  0.00000000E+00
  0.00000000E+00  0.00000000E+00  0.00000000E+00
  0.00000000E+00  0.00000000E+00  0.00000000E+00
  0.00000000E+00  0.00000000E+00  0.00000000E+00
  0.00000000E+00  0.00000000E+00  0.00000000E+00
  0.00000000E+00  0.00000000E+00  0.00000000E+00
  0.00000000E+00  0.00000000E+00  0.00000000E+00
  0.00000000E+00  0.00000000E+00  0.00000000E+00
  0.00000000E+00  0.00000000E+00  0.00000000E+00
  0.00000000E+00  0.00000000E+00  0.00000000E+00
  0.00000000E+00  0.00000000E+00  0.00000000E+00
  0.00000000E+00  0.00000000E+00  0.00000000E+00
  0.00000000E+00  0.00000000E+00  0.00000000E+00
  0.00000000E+00  0.00000000E+00  0.00000000E+00
  0.00000000E+00  0.00000000E+00  0.00000000E+00
  0.00000000E+00  0.00000000E+00  0.00000000E+00
  0.00000000E+00  0.00000000E+00  0.00000000E+00
  0.00000000E+00  0.00000000E+00  0.00000000E+00
  0.00000000E+00  0.00000000E+00  0.00000000E+00
  0.00000000E+00  0.00000000E+00  0.00000000E+00
  0.00000000E+00  0.00000000E+00  0.00000000E+00
  0.00000000E+00  0.00000000E+00  0.00000000E+00
  0.00000000E+00  0.00000000E+00  0.00000000E+00
  0.00000000E+00  0.00000000E+00  0.00000000E+00
  0.00000000E+00  0.00000000E+00  0.00000000E+00
  0.00000000E+00  0.00000000E+00  0.00000000E+00
  0.00000000E+00  0.00000000E+00  0.00000000E+00
  0.00000000E+00  0.00000000E+00  0.00000000E+00
  0.00000000E+00  0.00000000E+00  0.00000000E+00
  0.00000000E+00  0.00000000E+00  0.00000000E+00
  0.00000000E+00  0.00000000E+00  0.00000000E+00
  0.00000000E+00  0.00000000E+00  0.00000000E+00
  0.00000000E+00  0.00000000E+00  0.00000000E+00
  0.00000000E+00  0.00000000E+00  0.00000000E+00
  0.00000000E+00  0.00000000E+00  0.00000000E+00
  0.00000000E+00  0.00000000E+00  0.00000000E+00
  0.00000000E+00  0.00000000E+00  0.00000000E+00
  0.00000000E+00  0.00000000E+00  0.00000000E+00
  0.00000000E+00  0.00000000E+00  0.00000000E+00
  0.00000000E+00  0.00000000E+00  0.00000000E+00
