C4                                      
   1.00000000000000     
    14.8063199999999995    0.0000000000000000    0.0000000000000000
    -7.4031599999999997   12.8226492600000004    0.0000000000000000
     0.0000000000000000    0.0000000000000000   18.0000000000000000
   C    Ag
    72     4
Direct
  0.0554952993795865  0.1111141607375004  0.3622374266470558
  0.9999659875592926  0.9999850766581915  0.3632971364087680
  0.0555337221337666  0.2777730938684044  0.3602590337245104
  0.9999841722913416  0.1666751480026107  0.3616264964235683
  0.0555466639497340  0.4444360806519327  0.3610725664438235
  0.9999912226074414  0.3333407244800810  0.3610530019220803
  0.0555277831915006  0.6110879209036995  0.3626503761198734
  0.9999856312075863  0.4999822268258214  0.3620987225194199
  0.0555517736166493  0.7777675113511364  0.3635564014774459
  0.9999853030568033  0.6666363696252375  0.3631816633856886
  0.0555434083462529  0.9444367802695908  0.3635333842854251
  0.9999946242192053  0.8333415363044239  0.3636701100984894
  0.2222759967558900  0.1111231159487573  0.3623198177522511
  0.1666774235496007  0.9999923962593726  0.3632793927543929
  0.2222446175091051  0.2778287039029905  0.3597562141447881
  0.1666560248141309  0.1666609608199607  0.3615374972180803
  0.2221229559236235  0.4444227206739058  0.3591039610058289
  0.1665893332585782  0.3333584877445546  0.3590476995300946
  0.2221896384232807  0.6110774729151558  0.3616972363388911
  0.1666556593064996  0.4999855993618212  0.3603235729985883
  0.2222004988927111  0.7777378684856373  0.3633820048384564
  0.1666506663030916  0.6666439223280420  0.3626867514845387
  0.2222212857156833  0.9444504732367420  0.3635334249096687
  0.1666472479375471  0.8333152063628617  0.3636119844402259
  0.3888837650335404  0.1111192374700067  0.3627759186924280
  0.3333478467349451  0.0000358816779666  0.3633971360513613
  0.3888762361939513  0.2777927132792186  0.3605548280348572
  0.3333483499301124  0.1666943172410313  0.3618353258740754
  0.3889503398339613  0.4444110802740724  0.3593098563378376
  0.3334230996900160  0.3333643042031795  0.3592569569745621
  0.3888772305536605  0.6110974435614978  0.3616449126194610
  0.3333026785335420  0.4999363682129214  0.3598478414302448
  0.3888583825592278  0.7777708244065664  0.3632884711726732
  0.3332670061473593  0.6666408712593750  0.3623018265134661
  0.3888966946260624  0.9444513770525802  0.3636009092511827
  0.3333242981212194  0.8333216824785836  0.3635078950964612
  0.5555436679294488  0.1111207154934348  0.3631940002359073
  0.4999857651305817  0.9999994618932035  0.3635448400082524
  0.5555445535663850  0.2777812494220129  0.3622969032277865
  0.4999971323202956  0.1666668509233773  0.3627586343584142
  0.5555366125087247  0.4444366506953301  0.3614227159161203
  0.4999861249354325  0.3333478801997529  0.3613727009369612
  0.5555391227176543  0.6110736621788035  0.3619462094489023
  0.4999772696906817  0.4999809345289421  0.3606584060365137
  0.5555679764388088  0.7777788098411449  0.3633725996677271
  0.5000347288455060  0.6666374867341318  0.3624293876697067
  0.5555393589292450  0.9444321805141982  0.3636506140670477
  0.4999928953689334  0.8333386199785622  0.3635600350325561
  0.7222349541949242  0.1111279405147627  0.3631456940726210
  0.6666675728239184  0.0000042628438521  0.3635446490775109
  0.7222110183890678  0.2777652258819145  0.3627730258548283
  0.6666659740170005  0.1666837337414933  0.3630239896994283
  0.7222027760978662  0.4444481110655332  0.3626342580888675
  0.6666327974529480  0.3333248815993031  0.3626083644758822
  0.7222216491457800  0.6110967501249505  0.3628752112204765
  0.6666513000937613  0.4999874042550019  0.3623693277982838
  0.7222012252377041  0.7777369526386622  0.3635583600215853
  0.6666470510153957  0.6666396288533036  0.3629271548532458
  0.7222123640482678  0.9444599223062582  0.3636643368285988
  0.6666591327858669  0.8333210200342194  0.3636382479622853
  0.8888824335909788  0.1111219709099629  0.3626551702061178
  0.8333469149879207  0.0000335886467155  0.3634119074097129
  0.8888782980258441  0.2777863347672564  0.3620775919942929
  0.8333201346222836  0.1666732473835282  0.3626127913953709
  0.8889111474262492  0.4444482526867830  0.3624872587800567
  0.8333448818332911  0.3333295358180308  0.3624762064159270
  0.8888728978300691  0.6110878703953944  0.3630780356216619
  0.8333364968282808  0.5000088221465617  0.3628091215002485
  0.8888691539281055  0.7777716802947978  0.3636253799459368
  0.8333078941071150  0.6666446074869157  0.3632766006059711
  0.8888856195250625  0.9444499892936733  0.3635728962852482
  0.8333299125178115  0.8333180452195137  0.3637210480072639
  0.3276278111088118  0.4910807090637022  0.5462967185809049
  0.1139499374082433  0.3885282292014693  0.5504044988789971
  0.2259980643930390  0.2868905430837074  0.5460245387753986
  0.4396255102761870  0.3893782485044071  0.5507927941166884
 
  0.00000000E+00  0.00000000E+00  0.00000000E+00
  0.00000000E+00  0.00000000E+00  0.00000000E+00
  0.00000000E+00  0.00000000E+00  0.00000000E+00
  0.00000000E+00  0.00000000E+00  0.00000000E+00
  0.00000000E+00  0.00000000E+00  0.00000000E+00
  0.00000000E+00  0.00000000E+00  0.00000000E+00
  0.00000000E+00  0.00000000E+00  0.00000000E+00
  0.00000000E+00  0.00000000E+00  0.00000000E+00
  0.00000000E+00  0.00000000E+00  0.00000000E+00
  0.00000000E+00  0.00000000E+00  0.00000000E+00
  0.00000000E+00  0.00000000E+00  0.00000000E+00
  0.00000000E+00  0.00000000E+00  0.00000000E+00
  0.00000000E+00  0.00000000E+00  0.00000000E+00
  0.00000000E+00  0.00000000E+00  0.00000000E+00
  0.00000000E+00  0.00000000E+00  0.00000000E+00
  0.00000000E+00  0.00000000E+00  0.00000000E+00
  0.00000000E+00  0.00000000E+00  0.00000000E+00
  0.00000000E+00  0.00000000E+00  0.00000000E+00
  0.00000000E+00  0.00000000E+00  0.00000000E+00
  0.00000000E+00  0.00000000E+00  0.00000000E+00
  0.00000000E+00  0.00000000E+00  0.00000000E+00
  0.00000000E+00  0.00000000E+00  0.00000000E+00
  0.00000000E+00  0.00000000E+00  0.00000000E+00
  0.00000000E+00  0.00000000E+00  0.00000000E+00
  0.00000000E+00  0.00000000E+00  0.00000000E+00
  0.00000000E+00  0.00000000E+00  0.00000000E+00
  0.00000000E+00  0.00000000E+00  0.00000000E+00
  0.00000000E+00  0.00000000E+00  0.00000000E+00
  0.00000000E+00  0.00000000E+00  0.00000000E+00
  0.00000000E+00  0.00000000E+00  0.00000000E+00
  0.00000000E+00  0.00000000E+00  0.00000000E+00
  0.00000000E+00  0.00000000E+00  0.00000000E+00
  0.00000000E+00  0.00000000E+00  0.00000000E+00
  0.00000000E+00  0.00000000E+00  0.00000000E+00
  0.00000000E+00  0.00000000E+00  0.00000000E+00
  0.00000000E+00  0.00000000E+00  0.00000000E+00
  0.00000000E+00  0.00000000E+00  0.00000000E+00
  0.00000000E+00  0.00000000E+00  0.00000000E+00
  0.00000000E+00  0.00000000E+00  0.00000000E+00
  0.00000000E+00  0.00000000E+00  0.00000000E+00
  0.00000000E+00  0.00000000E+00  0.00000000E+00
  0.00000000E+00  0.00000000E+00  0.00000000E+00
  0.00000000E+00  0.00000000E+00  0.00000000E+00
  0.00000000E+00  0.00000000E+00  0.00000000E+00
  0.00000000E+00  0.00000000E+00  0.00000000E+00
  0.00000000E+00  0.00000000E+00  0.00000000E+00
  0.00000000E+00  0.00000000E+00  0.00000000E+00
  0.00000000E+00  0.00000000E+00  0.00000000E+00
  0.00000000E+00  0.00000000E+00  0.00000000E+00
  0.00000000E+00  0.00000000E+00  0.00000000E+00
  0.00000000E+00  0.00000000E+00  0.00000000E+00
  0.00000000E+00  0.00000000E+00  0.00000000E+00
  0.00000000E+00  0.00000000E+00  0.00000000E+00
  0.00000000E+00  0.00000000E+00  0.00000000E+00
  0.00000000E+00  0.00000000E+00  0.00000000E+00
  0.00000000E+00  0.00000000E+00  0.00000000E+00
  0.00000000E+00  0.00000000E+00  0.00000000E+00
  0.00000000E+00  0.00000000E+00  0.00000000E+00
  0.00000000E+00  0.00000000E+00  0.00000000E+00
  0.00000000E+00  0.00000000E+00  0.00000000E+00
  0.00000000E+00  0.00000000E+00  0.00000000E+00
  0.00000000E+00  0.00000000E+00  0.00000000E+00
  0.00000000E+00  0.00000000E+00  0.00000000E+00
  0.00000000E+00  0.00000000E+00  0.00000000E+00
  0.00000000E+00  0.00000000E+00  0.00000000E+00
  0.00000000E+00  0.00000000E+00  0.00000000E+00
  0.00000000E+00  0.00000000E+00  0.00000000E+00
  0.00000000E+00  0.00000000E+00  0.00000000E+00
  0.00000000E+00  0.00000000E+00  0.00000000E+00
  0.00000000E+00  0.00000000E+00  0.00000000E+00
  0.00000000E+00  0.00000000E+00  0.00000000E+00
  0.00000000E+00  0.00000000E+00  0.00000000E+00
  0.00000000E+00  0.00000000E+00  0.00000000E+00
  0.00000000E+00  0.00000000E+00  0.00000000E+00
  0.00000000E+00  0.00000000E+00  0.00000000E+00
  0.00000000E+00  0.00000000E+00  0.00000000E+00
