C4                                      
   1.00000000000000     
    14.8063199999999995    0.0000000000000000    0.0000000000000000
    -7.4031599999999997   12.8226492600000004    0.0000000000000000
     0.0000000000000000    0.0000000000000000   17.0000000000000000
   C    Ni   Au
    72     1     2
Direct
  0.0554744942900882  0.1110666993201548  0.3850571981689725
  0.0000811157099108  0.0000446606798477  0.3850571981689725
  0.0554054028731699  0.2776696143738135  0.3847763615076758
  0.9999436755545048  0.1666110907130687  0.3849100050329568
  0.0554542091395547  0.4443927565790844  0.3841270525113103
  0.9999276412746880  0.3332962062211493  0.3843672252482264
  0.0555497987013354  0.6110997274026531  0.3839201253788147
  0.0000058412986661  0.5000116925973472  0.3839201253788147
  0.0556279587253101  0.7778151337788515  0.3843672252482264
  0.0001014408604476  0.6667186634209159  0.3841270525113103
  0.0556119244454933  0.9445002492869321  0.3849100050329568
  0.0001501971268283  0.8334417256261872  0.3847763615076758
  0.2221622137719308  0.1110811907169662  0.3854726946399580
  0.1667221138696249  0.0000767659560239  0.3849800591000374
  0.2218594021603906  0.2775114801531089  0.3859519468258412
  0.1665178978244413  0.1665372003868342  0.3854398922116786
  0.2219129001921800  0.4443414373191956  0.3850848738105839
  0.1664295917989307  0.3331765017147319  0.3852777526936393
  0.2220189540939757  0.6110995162228008  0.3843914753669537
  0.1664752178711737  0.5000119037771995  0.3843914753669537
  0.2221870450535306  0.7778151337788515  0.3843672252482264
  0.1666172225604683  0.6667186634209159  0.3841270525113103
  0.2222512129447551  0.9445025558895281  0.3847531846139560
  0.1666998368454671  0.8333996836909492  0.3843864850766892
  0.3889188469450318  0.1110811907169662  0.3854726946399580
  0.3333546520863990  0.0000767659560239  0.3849800591000374
  0.3887963927448652  0.2775929154897412  0.3869936266978868
  0.3333525358140506  0.1667050616281003  0.3859290976063576
  0.3875675173947215  0.4436874880605117  0.3885261666506779
  0.3328653268509072  0.3329363972904318  0.3872871965266711
  0.3884738653035740  0.6112944709884616  0.3863068756130019
  0.3327351743151041  0.4998169490115387  0.3863068756130019
  0.3888086900841969  0.7779348382852689  0.3852777526936393
  0.3331272428729832  0.6667699826808047  0.3850848738105839
  0.3888881848414556  0.9445002492869321  0.3849100050329568
  0.3332915284993589  0.8334417256261872  0.3847763615076758
  0.5555920650300550  0.1110666993201548  0.3850571981689725
  0.4999635449699440  0.0000446606798477  0.3850571981689725
  0.5556519379927352  0.2775114801531089  0.3859519468258412
  0.5000193025623716  0.1665372003868342  0.3854398922116786
  0.5561198406657937  0.4436874880605117  0.3885261666506779
  0.5000710704395175  0.3329363972904318  0.3872871965266711
  0.5559748821470691  0.6119498942941348  0.3912468449314943
  0.4995807578529323  0.4991615257058655  0.3912468449314943
  0.5554845295604807  0.7781749427095690  0.3872871965266711
  0.4994358093342086  0.6674239319394886  0.3885261666506779
  0.5555362974376266  0.9445741396131666  0.3854398922116786
  0.4999036620072630  0.8335998598468848  0.3859519468258412
  0.7222009579136000  0.1110345940439785  0.3849800591000374
  0.6666367730549680  0.0000301692830362  0.3854726946399580
  0.7222640715006463  0.2776696143738135  0.3847763615076758
  0.6666674151585426  0.1666110907130687  0.3849100050329568
  0.7224283971270182  0.4443414373191956  0.3850848738105839
  0.6667469099158083  0.3331765017147319  0.3852777526936393
  0.7228204656848902  0.6112944709884616  0.3863068756130019
  0.6670817746964275  0.4998169490115387  0.3863068756130019
  0.7226902831490847  0.7781749427095690  0.3872871965266711
  0.6679881226052728  0.6674239319394886  0.3885261666506779
  0.7222030741859484  0.9444062783719005  0.3859290976063576
  0.6667592072551329  0.8335184245102596  0.3869936266978868
  0.8888335061303749  0.1110345940439785  0.3849800591000374
  0.8333933962280682  0.0000301692830362  0.3854726946399580
  0.8888557631545311  0.2777116563090516  0.3843864850766892
  0.8333043970552438  0.1666087841104726  0.3847531846139560
  0.8889384174395261  0.4443927565790844  0.3841270525113103
  0.8333685649464684  0.3332962062211493  0.3843672252482264
  0.8890804221288278  0.6110995162228008  0.3843914753669537
  0.8335366859060187  0.5000119037771995  0.3843914753669537
  0.8891260082010746  0.7779348382852689  0.3852777526936393
  0.8336427398078214  0.6667699826808047  0.3850848738105839
  0.8890377021755569  0.9445741396131666  0.3854398922116786
  0.8336961978396147  0.8335998598468848  0.3859519468258412
  0.5277778199999972  0.5555556300000006  0.5032097713125268
  0.4379531040683062  0.5555556300000006  0.6262755482222246
  0.6176025259317015  0.5555556300000006  0.6262755482222246
 
  0.00000000E+00  0.00000000E+00  0.00000000E+00
  0.00000000E+00  0.00000000E+00  0.00000000E+00
  0.00000000E+00  0.00000000E+00  0.00000000E+00
  0.00000000E+00  0.00000000E+00  0.00000000E+00
  0.00000000E+00  0.00000000E+00  0.00000000E+00
  0.00000000E+00  0.00000000E+00  0.00000000E+00
  0.00000000E+00  0.00000000E+00  0.00000000E+00
  0.00000000E+00  0.00000000E+00  0.00000000E+00
  0.00000000E+00  0.00000000E+00  0.00000000E+00
  0.00000000E+00  0.00000000E+00  0.00000000E+00
  0.00000000E+00  0.00000000E+00  0.00000000E+00
  0.00000000E+00  0.00000000E+00  0.00000000E+00
  0.00000000E+00  0.00000000E+00  0.00000000E+00
  0.00000000E+00  0.00000000E+00  0.00000000E+00
  0.00000000E+00  0.00000000E+00  0.00000000E+00
  0.00000000E+00  0.00000000E+00  0.00000000E+00
  0.00000000E+00  0.00000000E+00  0.00000000E+00
  0.00000000E+00  0.00000000E+00  0.00000000E+00
  0.00000000E+00  0.00000000E+00  0.00000000E+00
  0.00000000E+00  0.00000000E+00  0.00000000E+00
  0.00000000E+00  0.00000000E+00  0.00000000E+00
  0.00000000E+00  0.00000000E+00  0.00000000E+00
  0.00000000E+00  0.00000000E+00  0.00000000E+00
  0.00000000E+00  0.00000000E+00  0.00000000E+00
  0.00000000E+00  0.00000000E+00  0.00000000E+00
  0.00000000E+00  0.00000000E+00  0.00000000E+00
  0.00000000E+00  0.00000000E+00  0.00000000E+00
  0.00000000E+00  0.00000000E+00  0.00000000E+00
  0.00000000E+00  0.00000000E+00  0.00000000E+00
  0.00000000E+00  0.00000000E+00  0.00000000E+00
  0.00000000E+00  0.00000000E+00  0.00000000E+00
  0.00000000E+00  0.00000000E+00  0.00000000E+00
  0.00000000E+00  0.00000000E+00  0.00000000E+00
  0.00000000E+00  0.00000000E+00  0.00000000E+00
  0.00000000E+00  0.00000000E+00  0.00000000E+00
  0.00000000E+00  0.00000000E+00  0.00000000E+00
  0.00000000E+00  0.00000000E+00  0.00000000E+00
  0.00000000E+00  0.00000000E+00  0.00000000E+00
  0.00000000E+00  0.00000000E+00  0.00000000E+00
  0.00000000E+00  0.00000000E+00  0.00000000E+00
  0.00000000E+00  0.00000000E+00  0.00000000E+00
  0.00000000E+00  0.00000000E+00  0.00000000E+00
  0.00000000E+00  0.00000000E+00  0.00000000E+00
  0.00000000E+00  0.00000000E+00  0.00000000E+00
  0.00000000E+00  0.00000000E+00  0.00000000E+00
  0.00000000E+00  0.00000000E+00  0.00000000E+00
  0.00000000E+00  0.00000000E+00  0.00000000E+00
  0.00000000E+00  0.00000000E+00  0.00000000E+00
  0.00000000E+00  0.00000000E+00  0.00000000E+00
  0.00000000E+00  0.00000000E+00  0.00000000E+00
  0.00000000E+00  0.00000000E+00  0.00000000E+00
  0.00000000E+00  0.00000000E+00  0.00000000E+00
  0.00000000E+00  0.00000000E+00  0.00000000E+00
  0.00000000E+00  0.00000000E+00  0.00000000E+00
  0.00000000E+00  0.00000000E+00  0.00000000E+00
  0.00000000E+00  0.00000000E+00  0.00000000E+00
  0.00000000E+00  0.00000000E+00  0.00000000E+00
  0.00000000E+00  0.00000000E+00  0.00000000E+00
  0.00000000E+00  0.00000000E+00  0.00000000E+00
  0.00000000E+00  0.00000000E+00  0.00000000E+00
  0.00000000E+00  0.00000000E+00  0.00000000E+00
  0.00000000E+00  0.00000000E+00  0.00000000E+00
  0.00000000E+00  0.00000000E+00  0.00000000E+00
  0.00000000E+00  0.00000000E+00  0.00000000E+00
  0.00000000E+00  0.00000000E+00  0.00000000E+00
  0.00000000E+00  0.00000000E+00  0.00000000E+00
  0.00000000E+00  0.00000000E+00  0.00000000E+00
  0.00000000E+00  0.00000000E+00  0.00000000E+00
  0.00000000E+00  0.00000000E+00  0.00000000E+00
  0.00000000E+00  0.00000000E+00  0.00000000E+00
  0.00000000E+00  0.00000000E+00  0.00000000E+00
  0.00000000E+00  0.00000000E+00  0.00000000E+00
  0.00000000E+00  0.00000000E+00  0.00000000E+00
  0.00000000E+00  0.00000000E+00  0.00000000E+00
  0.00000000E+00  0.00000000E+00  0.00000000E+00
